*SPEF "ieee 1481-1999"
*DESIGN "user_project_wrapper"
*DATE "11:11:11 Fri 11 11, 1111"
*VENDOR "OpenRCX"
*PROGRAM "Parallel Extraction"
*VERSION "1.0"
*DESIGN_FLOW "NAME_SCOPE LOCAL" "PIN_CAP NONE"
*DIVIDER /
*DELIMITER :
*BUS_DELIMITER []
*T_UNIT 1 NS
*C_UNIT 1 PF
*R_UNIT 1 OHM
*L_UNIT 1 HENRY

*NAME_MAP
*1 analog_io[0]
*2 analog_io[10]
*3 analog_io[11]
*4 analog_io[12]
*5 analog_io[13]
*6 analog_io[14]
*7 analog_io[15]
*8 analog_io[16]
*9 analog_io[17]
*10 analog_io[18]
*11 analog_io[19]
*12 analog_io[1]
*13 analog_io[20]
*14 analog_io[21]
*15 analog_io[22]
*16 analog_io[23]
*17 analog_io[24]
*18 analog_io[25]
*19 analog_io[26]
*20 analog_io[27]
*21 analog_io[28]
*22 analog_io[2]
*23 analog_io[3]
*24 analog_io[4]
*25 analog_io[5]
*26 analog_io[6]
*27 analog_io[7]
*28 analog_io[8]
*29 analog_io[9]
*30 io_in[0]
*31 io_in[10]
*32 io_in[11]
*33 io_in[12]
*34 io_in[13]
*35 io_in[14]
*36 io_in[15]
*37 io_in[16]
*38 io_in[17]
*39 io_in[18]
*40 io_in[19]
*41 io_in[1]
*42 io_in[20]
*43 io_in[21]
*44 io_in[22]
*45 io_in[23]
*46 io_in[24]
*47 io_in[25]
*48 io_in[26]
*49 io_in[27]
*50 io_in[28]
*51 io_in[29]
*52 io_in[2]
*53 io_in[30]
*54 io_in[31]
*55 io_in[32]
*56 io_in[33]
*57 io_in[34]
*58 io_in[35]
*59 io_in[36]
*60 io_in[37]
*61 io_in[3]
*62 io_in[4]
*63 io_in[5]
*64 io_in[6]
*65 io_in[7]
*66 io_in[8]
*67 io_in[9]
*68 io_oeb[0]
*69 io_oeb[10]
*70 io_oeb[11]
*71 io_oeb[12]
*72 io_oeb[13]
*73 io_oeb[14]
*74 io_oeb[15]
*75 io_oeb[16]
*76 io_oeb[17]
*77 io_oeb[18]
*78 io_oeb[19]
*79 io_oeb[1]
*80 io_oeb[20]
*81 io_oeb[21]
*82 io_oeb[22]
*83 io_oeb[23]
*84 io_oeb[24]
*85 io_oeb[25]
*86 io_oeb[26]
*87 io_oeb[27]
*88 io_oeb[28]
*89 io_oeb[29]
*90 io_oeb[2]
*91 io_oeb[30]
*92 io_oeb[31]
*93 io_oeb[32]
*94 io_oeb[33]
*95 io_oeb[34]
*96 io_oeb[35]
*97 io_oeb[36]
*98 io_oeb[37]
*99 io_oeb[3]
*100 io_oeb[4]
*101 io_oeb[5]
*102 io_oeb[6]
*103 io_oeb[7]
*104 io_oeb[8]
*105 io_oeb[9]
*106 io_out[0]
*107 io_out[10]
*108 io_out[11]
*109 io_out[12]
*110 io_out[13]
*111 io_out[14]
*112 io_out[15]
*113 io_out[16]
*114 io_out[17]
*115 io_out[18]
*116 io_out[19]
*117 io_out[1]
*118 io_out[20]
*119 io_out[21]
*120 io_out[22]
*121 io_out[23]
*122 io_out[24]
*123 io_out[25]
*124 io_out[26]
*125 io_out[27]
*126 io_out[28]
*127 io_out[29]
*128 io_out[2]
*129 io_out[30]
*130 io_out[31]
*131 io_out[32]
*132 io_out[33]
*133 io_out[34]
*134 io_out[35]
*135 io_out[36]
*136 io_out[37]
*137 io_out[3]
*138 io_out[4]
*139 io_out[5]
*140 io_out[6]
*141 io_out[7]
*142 io_out[8]
*143 io_out[9]
*144 la_data_in[0]
*145 la_data_in[100]
*146 la_data_in[101]
*147 la_data_in[102]
*148 la_data_in[103]
*149 la_data_in[104]
*150 la_data_in[105]
*151 la_data_in[106]
*152 la_data_in[107]
*153 la_data_in[108]
*154 la_data_in[109]
*155 la_data_in[10]
*156 la_data_in[110]
*157 la_data_in[111]
*158 la_data_in[112]
*159 la_data_in[113]
*160 la_data_in[114]
*161 la_data_in[115]
*162 la_data_in[116]
*163 la_data_in[117]
*164 la_data_in[118]
*165 la_data_in[119]
*166 la_data_in[11]
*167 la_data_in[120]
*168 la_data_in[121]
*169 la_data_in[122]
*170 la_data_in[123]
*171 la_data_in[124]
*172 la_data_in[125]
*173 la_data_in[126]
*174 la_data_in[127]
*175 la_data_in[12]
*176 la_data_in[13]
*177 la_data_in[14]
*178 la_data_in[15]
*179 la_data_in[16]
*180 la_data_in[17]
*181 la_data_in[18]
*182 la_data_in[19]
*183 la_data_in[1]
*184 la_data_in[20]
*185 la_data_in[21]
*186 la_data_in[22]
*187 la_data_in[23]
*188 la_data_in[24]
*189 la_data_in[25]
*190 la_data_in[26]
*191 la_data_in[27]
*192 la_data_in[28]
*193 la_data_in[29]
*194 la_data_in[2]
*195 la_data_in[30]
*196 la_data_in[31]
*197 la_data_in[32]
*198 la_data_in[33]
*199 la_data_in[34]
*200 la_data_in[35]
*201 la_data_in[36]
*202 la_data_in[37]
*203 la_data_in[38]
*204 la_data_in[39]
*205 la_data_in[3]
*206 la_data_in[40]
*207 la_data_in[41]
*208 la_data_in[42]
*209 la_data_in[43]
*210 la_data_in[44]
*211 la_data_in[45]
*212 la_data_in[46]
*213 la_data_in[47]
*214 la_data_in[48]
*215 la_data_in[49]
*216 la_data_in[4]
*217 la_data_in[50]
*218 la_data_in[51]
*219 la_data_in[52]
*220 la_data_in[53]
*221 la_data_in[54]
*222 la_data_in[55]
*223 la_data_in[56]
*224 la_data_in[57]
*225 la_data_in[58]
*226 la_data_in[59]
*227 la_data_in[5]
*228 la_data_in[60]
*229 la_data_in[61]
*230 la_data_in[62]
*231 la_data_in[63]
*232 la_data_in[64]
*233 la_data_in[65]
*234 la_data_in[66]
*235 la_data_in[67]
*236 la_data_in[68]
*237 la_data_in[69]
*238 la_data_in[6]
*239 la_data_in[70]
*240 la_data_in[71]
*241 la_data_in[72]
*242 la_data_in[73]
*243 la_data_in[74]
*244 la_data_in[75]
*245 la_data_in[76]
*246 la_data_in[77]
*247 la_data_in[78]
*248 la_data_in[79]
*249 la_data_in[7]
*250 la_data_in[80]
*251 la_data_in[81]
*252 la_data_in[82]
*253 la_data_in[83]
*254 la_data_in[84]
*255 la_data_in[85]
*256 la_data_in[86]
*257 la_data_in[87]
*258 la_data_in[88]
*259 la_data_in[89]
*260 la_data_in[8]
*261 la_data_in[90]
*262 la_data_in[91]
*263 la_data_in[92]
*264 la_data_in[93]
*265 la_data_in[94]
*266 la_data_in[95]
*267 la_data_in[96]
*268 la_data_in[97]
*269 la_data_in[98]
*270 la_data_in[99]
*271 la_data_in[9]
*272 la_data_out[0]
*273 la_data_out[100]
*274 la_data_out[101]
*275 la_data_out[102]
*276 la_data_out[103]
*277 la_data_out[104]
*278 la_data_out[105]
*279 la_data_out[106]
*280 la_data_out[107]
*281 la_data_out[108]
*282 la_data_out[109]
*283 la_data_out[10]
*284 la_data_out[110]
*285 la_data_out[111]
*286 la_data_out[112]
*287 la_data_out[113]
*288 la_data_out[114]
*289 la_data_out[115]
*290 la_data_out[116]
*291 la_data_out[117]
*292 la_data_out[118]
*293 la_data_out[119]
*294 la_data_out[11]
*295 la_data_out[120]
*296 la_data_out[121]
*297 la_data_out[122]
*298 la_data_out[123]
*299 la_data_out[124]
*300 la_data_out[125]
*301 la_data_out[126]
*302 la_data_out[127]
*303 la_data_out[12]
*304 la_data_out[13]
*305 la_data_out[14]
*306 la_data_out[15]
*307 la_data_out[16]
*308 la_data_out[17]
*309 la_data_out[18]
*310 la_data_out[19]
*311 la_data_out[1]
*312 la_data_out[20]
*313 la_data_out[21]
*314 la_data_out[22]
*315 la_data_out[23]
*316 la_data_out[24]
*317 la_data_out[25]
*318 la_data_out[26]
*319 la_data_out[27]
*320 la_data_out[28]
*321 la_data_out[29]
*322 la_data_out[2]
*323 la_data_out[30]
*324 la_data_out[31]
*325 la_data_out[32]
*326 la_data_out[33]
*327 la_data_out[34]
*328 la_data_out[35]
*329 la_data_out[36]
*330 la_data_out[37]
*331 la_data_out[38]
*332 la_data_out[39]
*333 la_data_out[3]
*334 la_data_out[40]
*335 la_data_out[41]
*336 la_data_out[42]
*337 la_data_out[43]
*338 la_data_out[44]
*339 la_data_out[45]
*340 la_data_out[46]
*341 la_data_out[47]
*342 la_data_out[48]
*343 la_data_out[49]
*344 la_data_out[4]
*345 la_data_out[50]
*346 la_data_out[51]
*347 la_data_out[52]
*348 la_data_out[53]
*349 la_data_out[54]
*350 la_data_out[55]
*351 la_data_out[56]
*352 la_data_out[57]
*353 la_data_out[58]
*354 la_data_out[59]
*355 la_data_out[5]
*356 la_data_out[60]
*357 la_data_out[61]
*358 la_data_out[62]
*359 la_data_out[63]
*360 la_data_out[64]
*361 la_data_out[65]
*362 la_data_out[66]
*363 la_data_out[67]
*364 la_data_out[68]
*365 la_data_out[69]
*366 la_data_out[6]
*367 la_data_out[70]
*368 la_data_out[71]
*369 la_data_out[72]
*370 la_data_out[73]
*371 la_data_out[74]
*372 la_data_out[75]
*373 la_data_out[76]
*374 la_data_out[77]
*375 la_data_out[78]
*376 la_data_out[79]
*377 la_data_out[7]
*378 la_data_out[80]
*379 la_data_out[81]
*380 la_data_out[82]
*381 la_data_out[83]
*382 la_data_out[84]
*383 la_data_out[85]
*384 la_data_out[86]
*385 la_data_out[87]
*386 la_data_out[88]
*387 la_data_out[89]
*388 la_data_out[8]
*389 la_data_out[90]
*390 la_data_out[91]
*391 la_data_out[92]
*392 la_data_out[93]
*393 la_data_out[94]
*394 la_data_out[95]
*395 la_data_out[96]
*396 la_data_out[97]
*397 la_data_out[98]
*398 la_data_out[99]
*399 la_data_out[9]
*400 la_oenb[0]
*401 la_oenb[100]
*402 la_oenb[101]
*403 la_oenb[102]
*404 la_oenb[103]
*405 la_oenb[104]
*406 la_oenb[105]
*407 la_oenb[106]
*408 la_oenb[107]
*409 la_oenb[108]
*410 la_oenb[109]
*411 la_oenb[10]
*412 la_oenb[110]
*413 la_oenb[111]
*414 la_oenb[112]
*415 la_oenb[113]
*416 la_oenb[114]
*417 la_oenb[115]
*418 la_oenb[116]
*419 la_oenb[117]
*420 la_oenb[118]
*421 la_oenb[119]
*422 la_oenb[11]
*423 la_oenb[120]
*424 la_oenb[121]
*425 la_oenb[122]
*426 la_oenb[123]
*427 la_oenb[124]
*428 la_oenb[125]
*429 la_oenb[126]
*430 la_oenb[127]
*431 la_oenb[12]
*432 la_oenb[13]
*433 la_oenb[14]
*434 la_oenb[15]
*435 la_oenb[16]
*436 la_oenb[17]
*437 la_oenb[18]
*438 la_oenb[19]
*439 la_oenb[1]
*440 la_oenb[20]
*441 la_oenb[21]
*442 la_oenb[22]
*443 la_oenb[23]
*444 la_oenb[24]
*445 la_oenb[25]
*446 la_oenb[26]
*447 la_oenb[27]
*448 la_oenb[28]
*449 la_oenb[29]
*450 la_oenb[2]
*451 la_oenb[30]
*452 la_oenb[31]
*453 la_oenb[32]
*454 la_oenb[33]
*455 la_oenb[34]
*456 la_oenb[35]
*457 la_oenb[36]
*458 la_oenb[37]
*459 la_oenb[38]
*460 la_oenb[39]
*461 la_oenb[3]
*462 la_oenb[40]
*463 la_oenb[41]
*464 la_oenb[42]
*465 la_oenb[43]
*466 la_oenb[44]
*467 la_oenb[45]
*468 la_oenb[46]
*469 la_oenb[47]
*470 la_oenb[48]
*471 la_oenb[49]
*472 la_oenb[4]
*473 la_oenb[50]
*474 la_oenb[51]
*475 la_oenb[52]
*476 la_oenb[53]
*477 la_oenb[54]
*478 la_oenb[55]
*479 la_oenb[56]
*480 la_oenb[57]
*481 la_oenb[58]
*482 la_oenb[59]
*483 la_oenb[5]
*484 la_oenb[60]
*485 la_oenb[61]
*486 la_oenb[62]
*487 la_oenb[63]
*488 la_oenb[64]
*489 la_oenb[65]
*490 la_oenb[66]
*491 la_oenb[67]
*492 la_oenb[68]
*493 la_oenb[69]
*494 la_oenb[6]
*495 la_oenb[70]
*496 la_oenb[71]
*497 la_oenb[72]
*498 la_oenb[73]
*499 la_oenb[74]
*500 la_oenb[75]
*501 la_oenb[76]
*502 la_oenb[77]
*503 la_oenb[78]
*504 la_oenb[79]
*505 la_oenb[7]
*506 la_oenb[80]
*507 la_oenb[81]
*508 la_oenb[82]
*509 la_oenb[83]
*510 la_oenb[84]
*511 la_oenb[85]
*512 la_oenb[86]
*513 la_oenb[87]
*514 la_oenb[88]
*515 la_oenb[89]
*516 la_oenb[8]
*517 la_oenb[90]
*518 la_oenb[91]
*519 la_oenb[92]
*520 la_oenb[93]
*521 la_oenb[94]
*522 la_oenb[95]
*523 la_oenb[96]
*524 la_oenb[97]
*525 la_oenb[98]
*526 la_oenb[99]
*527 la_oenb[9]
*528 user_clock2
*529 user_irq[0]
*530 user_irq[1]
*531 user_irq[2]
*540 wb_clk_i
*541 wb_rst_i
*542 wbs_ack_o
*543 wbs_adr_i[0]
*544 wbs_adr_i[10]
*545 wbs_adr_i[11]
*546 wbs_adr_i[12]
*547 wbs_adr_i[13]
*548 wbs_adr_i[14]
*549 wbs_adr_i[15]
*550 wbs_adr_i[16]
*551 wbs_adr_i[17]
*552 wbs_adr_i[18]
*553 wbs_adr_i[19]
*554 wbs_adr_i[1]
*555 wbs_adr_i[20]
*556 wbs_adr_i[21]
*557 wbs_adr_i[22]
*558 wbs_adr_i[23]
*559 wbs_adr_i[24]
*560 wbs_adr_i[25]
*561 wbs_adr_i[26]
*562 wbs_adr_i[27]
*563 wbs_adr_i[28]
*564 wbs_adr_i[29]
*565 wbs_adr_i[2]
*566 wbs_adr_i[30]
*567 wbs_adr_i[31]
*568 wbs_adr_i[3]
*569 wbs_adr_i[4]
*570 wbs_adr_i[5]
*571 wbs_adr_i[6]
*572 wbs_adr_i[7]
*573 wbs_adr_i[8]
*574 wbs_adr_i[9]
*575 wbs_cyc_i
*576 wbs_dat_i[0]
*577 wbs_dat_i[10]
*578 wbs_dat_i[11]
*579 wbs_dat_i[12]
*580 wbs_dat_i[13]
*581 wbs_dat_i[14]
*582 wbs_dat_i[15]
*583 wbs_dat_i[16]
*584 wbs_dat_i[17]
*585 wbs_dat_i[18]
*586 wbs_dat_i[19]
*587 wbs_dat_i[1]
*588 wbs_dat_i[20]
*589 wbs_dat_i[21]
*590 wbs_dat_i[22]
*591 wbs_dat_i[23]
*592 wbs_dat_i[24]
*593 wbs_dat_i[25]
*594 wbs_dat_i[26]
*595 wbs_dat_i[27]
*596 wbs_dat_i[28]
*597 wbs_dat_i[29]
*598 wbs_dat_i[2]
*599 wbs_dat_i[30]
*600 wbs_dat_i[31]
*601 wbs_dat_i[3]
*602 wbs_dat_i[4]
*603 wbs_dat_i[5]
*604 wbs_dat_i[6]
*605 wbs_dat_i[7]
*606 wbs_dat_i[8]
*607 wbs_dat_i[9]
*608 wbs_dat_o[0]
*609 wbs_dat_o[10]
*610 wbs_dat_o[11]
*611 wbs_dat_o[12]
*612 wbs_dat_o[13]
*613 wbs_dat_o[14]
*614 wbs_dat_o[15]
*615 wbs_dat_o[16]
*616 wbs_dat_o[17]
*617 wbs_dat_o[18]
*618 wbs_dat_o[19]
*619 wbs_dat_o[1]
*620 wbs_dat_o[20]
*621 wbs_dat_o[21]
*622 wbs_dat_o[22]
*623 wbs_dat_o[23]
*624 wbs_dat_o[24]
*625 wbs_dat_o[25]
*626 wbs_dat_o[26]
*627 wbs_dat_o[27]
*628 wbs_dat_o[28]
*629 wbs_dat_o[29]
*630 wbs_dat_o[2]
*631 wbs_dat_o[30]
*632 wbs_dat_o[31]
*633 wbs_dat_o[3]
*634 wbs_dat_o[4]
*635 wbs_dat_o[5]
*636 wbs_dat_o[6]
*637 wbs_dat_o[7]
*638 wbs_dat_o[8]
*639 wbs_dat_o[9]
*640 wbs_sel_i[0]
*641 wbs_sel_i[1]
*642 wbs_sel_i[2]
*643 wbs_sel_i[3]
*644 wbs_stb_i
*645 wbs_we_i
*646 mprj

*PORTS
analog_io[0] I
analog_io[10] I
analog_io[11] I
analog_io[12] I
analog_io[13] I
analog_io[14] I
analog_io[15] I
analog_io[16] I
analog_io[17] I
analog_io[18] I
analog_io[19] I
analog_io[1] I
analog_io[20] I
analog_io[21] I
analog_io[22] I
analog_io[23] I
analog_io[24] I
analog_io[25] I
analog_io[26] I
analog_io[27] I
analog_io[28] I
analog_io[2] I
analog_io[3] I
analog_io[4] I
analog_io[5] I
analog_io[6] I
analog_io[7] I
analog_io[8] I
analog_io[9] I
io_in[0] I
io_in[10] I
io_in[11] I
io_in[12] I
io_in[13] I
io_in[14] I
io_in[15] I
io_in[16] I
io_in[17] I
io_in[18] I
io_in[19] I
io_in[1] I
io_in[20] I
io_in[21] I
io_in[22] I
io_in[23] I
io_in[24] I
io_in[25] I
io_in[26] I
io_in[27] I
io_in[28] I
io_in[29] I
io_in[2] I
io_in[30] I
io_in[31] I
io_in[32] I
io_in[33] I
io_in[34] I
io_in[35] I
io_in[36] I
io_in[37] I
io_in[3] I
io_in[4] I
io_in[5] I
io_in[6] I
io_in[7] I
io_in[8] I
io_in[9] I
io_oeb[0] O
io_oeb[10] O
io_oeb[11] O
io_oeb[12] O
io_oeb[13] O
io_oeb[14] O
io_oeb[15] O
io_oeb[16] O
io_oeb[17] O
io_oeb[18] O
io_oeb[19] O
io_oeb[1] O
io_oeb[20] O
io_oeb[21] O
io_oeb[22] O
io_oeb[23] O
io_oeb[24] O
io_oeb[25] O
io_oeb[26] O
io_oeb[27] O
io_oeb[28] O
io_oeb[29] O
io_oeb[2] O
io_oeb[30] O
io_oeb[31] O
io_oeb[32] O
io_oeb[33] O
io_oeb[34] O
io_oeb[35] O
io_oeb[36] O
io_oeb[37] O
io_oeb[3] O
io_oeb[4] O
io_oeb[5] O
io_oeb[6] O
io_oeb[7] O
io_oeb[8] O
io_oeb[9] O
io_out[0] O
io_out[10] O
io_out[11] O
io_out[12] O
io_out[13] O
io_out[14] O
io_out[15] O
io_out[16] O
io_out[17] O
io_out[18] O
io_out[19] O
io_out[1] O
io_out[20] O
io_out[21] O
io_out[22] O
io_out[23] O
io_out[24] O
io_out[25] O
io_out[26] O
io_out[27] O
io_out[28] O
io_out[29] O
io_out[2] O
io_out[30] O
io_out[31] O
io_out[32] O
io_out[33] O
io_out[34] O
io_out[35] O
io_out[36] O
io_out[37] O
io_out[3] O
io_out[4] O
io_out[5] O
io_out[6] O
io_out[7] O
io_out[8] O
io_out[9] O
la_data_in[0] I
la_data_in[100] I
la_data_in[101] I
la_data_in[102] I
la_data_in[103] I
la_data_in[104] I
la_data_in[105] I
la_data_in[106] I
la_data_in[107] I
la_data_in[108] I
la_data_in[109] I
la_data_in[10] I
la_data_in[110] I
la_data_in[111] I
la_data_in[112] I
la_data_in[113] I
la_data_in[114] I
la_data_in[115] I
la_data_in[116] I
la_data_in[117] I
la_data_in[118] I
la_data_in[119] I
la_data_in[11] I
la_data_in[120] I
la_data_in[121] I
la_data_in[122] I
la_data_in[123] I
la_data_in[124] I
la_data_in[125] I
la_data_in[126] I
la_data_in[127] I
la_data_in[12] I
la_data_in[13] I
la_data_in[14] I
la_data_in[15] I
la_data_in[16] I
la_data_in[17] I
la_data_in[18] I
la_data_in[19] I
la_data_in[1] I
la_data_in[20] I
la_data_in[21] I
la_data_in[22] I
la_data_in[23] I
la_data_in[24] I
la_data_in[25] I
la_data_in[26] I
la_data_in[27] I
la_data_in[28] I
la_data_in[29] I
la_data_in[2] I
la_data_in[30] I
la_data_in[31] I
la_data_in[32] I
la_data_in[33] I
la_data_in[34] I
la_data_in[35] I
la_data_in[36] I
la_data_in[37] I
la_data_in[38] I
la_data_in[39] I
la_data_in[3] I
la_data_in[40] I
la_data_in[41] I
la_data_in[42] I
la_data_in[43] I
la_data_in[44] I
la_data_in[45] I
la_data_in[46] I
la_data_in[47] I
la_data_in[48] I
la_data_in[49] I
la_data_in[4] I
la_data_in[50] I
la_data_in[51] I
la_data_in[52] I
la_data_in[53] I
la_data_in[54] I
la_data_in[55] I
la_data_in[56] I
la_data_in[57] I
la_data_in[58] I
la_data_in[59] I
la_data_in[5] I
la_data_in[60] I
la_data_in[61] I
la_data_in[62] I
la_data_in[63] I
la_data_in[64] I
la_data_in[65] I
la_data_in[66] I
la_data_in[67] I
la_data_in[68] I
la_data_in[69] I
la_data_in[6] I
la_data_in[70] I
la_data_in[71] I
la_data_in[72] I
la_data_in[73] I
la_data_in[74] I
la_data_in[75] I
la_data_in[76] I
la_data_in[77] I
la_data_in[78] I
la_data_in[79] I
la_data_in[7] I
la_data_in[80] I
la_data_in[81] I
la_data_in[82] I
la_data_in[83] I
la_data_in[84] I
la_data_in[85] I
la_data_in[86] I
la_data_in[87] I
la_data_in[88] I
la_data_in[89] I
la_data_in[8] I
la_data_in[90] I
la_data_in[91] I
la_data_in[92] I
la_data_in[93] I
la_data_in[94] I
la_data_in[95] I
la_data_in[96] I
la_data_in[97] I
la_data_in[98] I
la_data_in[99] I
la_data_in[9] I
la_data_out[0] O
la_data_out[100] O
la_data_out[101] O
la_data_out[102] O
la_data_out[103] O
la_data_out[104] O
la_data_out[105] O
la_data_out[106] O
la_data_out[107] O
la_data_out[108] O
la_data_out[109] O
la_data_out[10] O
la_data_out[110] O
la_data_out[111] O
la_data_out[112] O
la_data_out[113] O
la_data_out[114] O
la_data_out[115] O
la_data_out[116] O
la_data_out[117] O
la_data_out[118] O
la_data_out[119] O
la_data_out[11] O
la_data_out[120] O
la_data_out[121] O
la_data_out[122] O
la_data_out[123] O
la_data_out[124] O
la_data_out[125] O
la_data_out[126] O
la_data_out[127] O
la_data_out[12] O
la_data_out[13] O
la_data_out[14] O
la_data_out[15] O
la_data_out[16] O
la_data_out[17] O
la_data_out[18] O
la_data_out[19] O
la_data_out[1] O
la_data_out[20] O
la_data_out[21] O
la_data_out[22] O
la_data_out[23] O
la_data_out[24] O
la_data_out[25] O
la_data_out[26] O
la_data_out[27] O
la_data_out[28] O
la_data_out[29] O
la_data_out[2] O
la_data_out[30] O
la_data_out[31] O
la_data_out[32] O
la_data_out[33] O
la_data_out[34] O
la_data_out[35] O
la_data_out[36] O
la_data_out[37] O
la_data_out[38] O
la_data_out[39] O
la_data_out[3] O
la_data_out[40] O
la_data_out[41] O
la_data_out[42] O
la_data_out[43] O
la_data_out[44] O
la_data_out[45] O
la_data_out[46] O
la_data_out[47] O
la_data_out[48] O
la_data_out[49] O
la_data_out[4] O
la_data_out[50] O
la_data_out[51] O
la_data_out[52] O
la_data_out[53] O
la_data_out[54] O
la_data_out[55] O
la_data_out[56] O
la_data_out[57] O
la_data_out[58] O
la_data_out[59] O
la_data_out[5] O
la_data_out[60] O
la_data_out[61] O
la_data_out[62] O
la_data_out[63] O
la_data_out[64] O
la_data_out[65] O
la_data_out[66] O
la_data_out[67] O
la_data_out[68] O
la_data_out[69] O
la_data_out[6] O
la_data_out[70] O
la_data_out[71] O
la_data_out[72] O
la_data_out[73] O
la_data_out[74] O
la_data_out[75] O
la_data_out[76] O
la_data_out[77] O
la_data_out[78] O
la_data_out[79] O
la_data_out[7] O
la_data_out[80] O
la_data_out[81] O
la_data_out[82] O
la_data_out[83] O
la_data_out[84] O
la_data_out[85] O
la_data_out[86] O
la_data_out[87] O
la_data_out[88] O
la_data_out[89] O
la_data_out[8] O
la_data_out[90] O
la_data_out[91] O
la_data_out[92] O
la_data_out[93] O
la_data_out[94] O
la_data_out[95] O
la_data_out[96] O
la_data_out[97] O
la_data_out[98] O
la_data_out[99] O
la_data_out[9] O
la_oenb[0] I
la_oenb[100] I
la_oenb[101] I
la_oenb[102] I
la_oenb[103] I
la_oenb[104] I
la_oenb[105] I
la_oenb[106] I
la_oenb[107] I
la_oenb[108] I
la_oenb[109] I
la_oenb[10] I
la_oenb[110] I
la_oenb[111] I
la_oenb[112] I
la_oenb[113] I
la_oenb[114] I
la_oenb[115] I
la_oenb[116] I
la_oenb[117] I
la_oenb[118] I
la_oenb[119] I
la_oenb[11] I
la_oenb[120] I
la_oenb[121] I
la_oenb[122] I
la_oenb[123] I
la_oenb[124] I
la_oenb[125] I
la_oenb[126] I
la_oenb[127] I
la_oenb[12] I
la_oenb[13] I
la_oenb[14] I
la_oenb[15] I
la_oenb[16] I
la_oenb[17] I
la_oenb[18] I
la_oenb[19] I
la_oenb[1] I
la_oenb[20] I
la_oenb[21] I
la_oenb[22] I
la_oenb[23] I
la_oenb[24] I
la_oenb[25] I
la_oenb[26] I
la_oenb[27] I
la_oenb[28] I
la_oenb[29] I
la_oenb[2] I
la_oenb[30] I
la_oenb[31] I
la_oenb[32] I
la_oenb[33] I
la_oenb[34] I
la_oenb[35] I
la_oenb[36] I
la_oenb[37] I
la_oenb[38] I
la_oenb[39] I
la_oenb[3] I
la_oenb[40] I
la_oenb[41] I
la_oenb[42] I
la_oenb[43] I
la_oenb[44] I
la_oenb[45] I
la_oenb[46] I
la_oenb[47] I
la_oenb[48] I
la_oenb[49] I
la_oenb[4] I
la_oenb[50] I
la_oenb[51] I
la_oenb[52] I
la_oenb[53] I
la_oenb[54] I
la_oenb[55] I
la_oenb[56] I
la_oenb[57] I
la_oenb[58] I
la_oenb[59] I
la_oenb[5] I
la_oenb[60] I
la_oenb[61] I
la_oenb[62] I
la_oenb[63] I
la_oenb[64] I
la_oenb[65] I
la_oenb[66] I
la_oenb[67] I
la_oenb[68] I
la_oenb[69] I
la_oenb[6] I
la_oenb[70] I
la_oenb[71] I
la_oenb[72] I
la_oenb[73] I
la_oenb[74] I
la_oenb[75] I
la_oenb[76] I
la_oenb[77] I
la_oenb[78] I
la_oenb[79] I
la_oenb[7] I
la_oenb[80] I
la_oenb[81] I
la_oenb[82] I
la_oenb[83] I
la_oenb[84] I
la_oenb[85] I
la_oenb[86] I
la_oenb[87] I
la_oenb[88] I
la_oenb[89] I
la_oenb[8] I
la_oenb[90] I
la_oenb[91] I
la_oenb[92] I
la_oenb[93] I
la_oenb[94] I
la_oenb[95] I
la_oenb[96] I
la_oenb[97] I
la_oenb[98] I
la_oenb[99] I
la_oenb[9] I
user_clock2 I
user_irq[0] O
user_irq[1] O
user_irq[2] O
wb_clk_i I
wb_rst_i I
wbs_ack_o O
wbs_adr_i[0] I
wbs_adr_i[10] I
wbs_adr_i[11] I
wbs_adr_i[12] I
wbs_adr_i[13] I
wbs_adr_i[14] I
wbs_adr_i[15] I
wbs_adr_i[16] I
wbs_adr_i[17] I
wbs_adr_i[18] I
wbs_adr_i[19] I
wbs_adr_i[1] I
wbs_adr_i[20] I
wbs_adr_i[21] I
wbs_adr_i[22] I
wbs_adr_i[23] I
wbs_adr_i[24] I
wbs_adr_i[25] I
wbs_adr_i[26] I
wbs_adr_i[27] I
wbs_adr_i[28] I
wbs_adr_i[29] I
wbs_adr_i[2] I
wbs_adr_i[30] I
wbs_adr_i[31] I
wbs_adr_i[3] I
wbs_adr_i[4] I
wbs_adr_i[5] I
wbs_adr_i[6] I
wbs_adr_i[7] I
wbs_adr_i[8] I
wbs_adr_i[9] I
wbs_cyc_i I
wbs_dat_i[0] I
wbs_dat_i[10] I
wbs_dat_i[11] I
wbs_dat_i[12] I
wbs_dat_i[13] I
wbs_dat_i[14] I
wbs_dat_i[15] I
wbs_dat_i[16] I
wbs_dat_i[17] I
wbs_dat_i[18] I
wbs_dat_i[19] I
wbs_dat_i[1] I
wbs_dat_i[20] I
wbs_dat_i[21] I
wbs_dat_i[22] I
wbs_dat_i[23] I
wbs_dat_i[24] I
wbs_dat_i[25] I
wbs_dat_i[26] I
wbs_dat_i[27] I
wbs_dat_i[28] I
wbs_dat_i[29] I
wbs_dat_i[2] I
wbs_dat_i[30] I
wbs_dat_i[31] I
wbs_dat_i[3] I
wbs_dat_i[4] I
wbs_dat_i[5] I
wbs_dat_i[6] I
wbs_dat_i[7] I
wbs_dat_i[8] I
wbs_dat_i[9] I
wbs_dat_o[0] O
wbs_dat_o[10] O
wbs_dat_o[11] O
wbs_dat_o[12] O
wbs_dat_o[13] O
wbs_dat_o[14] O
wbs_dat_o[15] O
wbs_dat_o[16] O
wbs_dat_o[17] O
wbs_dat_o[18] O
wbs_dat_o[19] O
wbs_dat_o[1] O
wbs_dat_o[20] O
wbs_dat_o[21] O
wbs_dat_o[22] O
wbs_dat_o[23] O
wbs_dat_o[24] O
wbs_dat_o[25] O
wbs_dat_o[26] O
wbs_dat_o[27] O
wbs_dat_o[28] O
wbs_dat_o[29] O
wbs_dat_o[2] O
wbs_dat_o[30] O
wbs_dat_o[31] O
wbs_dat_o[3] O
wbs_dat_o[4] O
wbs_dat_o[5] O
wbs_dat_o[6] O
wbs_dat_o[7] O
wbs_dat_o[8] O
wbs_dat_o[9] O
wbs_sel_i[0] I
wbs_sel_i[1] I
wbs_sel_i[2] I
wbs_sel_i[3] I
wbs_stb_i I
wbs_we_i I

*D_NET *30 0.00819432
*CONN
*P io_in[0] I
*I *646:io_io_in[0] I *D CaravelTopLevel
*CAP
1 io_in[0] 0.00409716
2 *646:io_io_in[0] 0.00409716
*RES
1 io_in[0] *646:io_io_in[0] 11.3461 
*END

*D_NET *31 0.137204
*CONN
*P io_in[10] I
*I *646:io_io_in[10] I *D CaravelTopLevel
*CAP
1 io_in[10] 0.00174984
2 *646:io_io_in[10] 0.00406063
3 *31:9 0.0369241
4 *31:7 0.0346133
5 *646:io_io_in[10] *64:9 0.00202511
6 *646:io_io_in[10] *66:17 0.00478259
7 *646:io_io_in[10] *108:7 0
8 *646:io_io_in[10] *142:9 0.00593558
9 *31:9 *35:17 0.0440754
10 *31:9 *66:13 0.00303788
11 *31:9 *70:9 0
12 *31:9 *104:9 0
*RES
1 io_in[10] *31:7 4.48113 
2 *31:7 *31:9 119.677 
3 *31:9 *646:io_io_in[10] 23.6654 
*END

*D_NET *32 0.174327
*CONN
*P io_in[11] I
*I *646:io_io_in[11] I *D CaravelTopLevel
*CAP
1 io_in[11] 0.00127313
2 *646:io_io_in[11] 0.0017987
3 *32:9 0.0495964
4 *32:7 0.0490708
5 *32:9 *107:9 0.0725875
6 *32:9 *111:9 0
*RES
1 io_in[11] *32:7 3.54887 
2 *32:7 *32:9 157.576 
3 *32:9 *646:io_io_in[11] 4.83073 
*END

*D_NET *33 0.224373
*CONN
*P io_in[12] I
*I *646:io_io_in[12] I *D CaravelTopLevel
*CAP
1 io_in[12] 0.00218066
2 *646:io_io_in[12] 0.000668655
3 *33:9 0.0253014
4 *33:7 0.0268134
5 *646:io_io_in[12] *66:13 0
6 *33:9 *34:9 0
7 *33:9 *108:9 0.0830635
8 *33:9 *110:9 0.0863451
*RES
1 io_in[12] *33:7 5.99607 
2 *33:7 *33:9 176.697 
3 *33:9 *646:io_io_in[12] 2.38353 
*END

*D_NET *34 0.242338
*CONN
*P io_in[13] I
*I *646:io_io_in[13] I *D CaravelTopLevel
*CAP
1 io_in[13] 0.00189938
2 *646:io_io_in[13] 0.00097195
3 *34:9 0.0526516
4 *34:7 0.053579
5 *34:9 *35:17 0
6 *34:9 *70:9 0.0797598
7 *34:9 *72:9 0.0509003
8 *34:9 *108:9 0
9 *34:9 *110:9 0
10 *34:9 *142:9 0.00257603
11 *33:9 *34:9 0
*RES
1 io_in[13] *34:7 5.29687 
2 *34:7 *34:9 195.905 
3 *34:9 *646:io_io_in[13] 3.08273 
*END

*D_NET *35 0.210789
*CONN
*P io_in[14] I
*I *646:io_io_in[14] I *D CaravelTopLevel
*CAP
1 io_in[14] 0.000748635
2 *646:io_io_in[14] 0.00149786
3 *35:17 0.0572208
4 *35:15 0.056555
5 *35:9 0.016124
6 *35:7 0.0160406
7 *35:9 *111:9 0.0185017
8 *35:15 io_out[12] 2.55441e-05
9 *35:17 *70:9 0
10 *31:9 *35:17 0.0440754
11 *34:9 *35:17 0
*RES
1 io_in[14] *35:7 2.38353 
2 *35:7 *35:9 58.6087 
3 *35:9 *35:15 3.01907 
4 *35:15 *35:17 156.542 
5 *35:17 *646:io_io_in[14] 4.015 
*END

*D_NET *36 0.144385
*CONN
*P io_in[15] I
*I *646:io_io_in[15] I *D CaravelTopLevel
*CAP
1 io_in[15] 0.0712591
2 *646:io_io_in[15] 0.000933345
3 *36:5 0.0721925
*RES
1 io_in[15] *36:5 1298.51 
2 *36:5 *646:io_io_in[15] 12.2822 
*END

*D_NET *37 0.145644
*CONN
*P io_in[16] I
*I *646:io_io_in[16] I *D CaravelTopLevel
*CAP
1 io_in[16] 0.0712591
2 *646:io_io_in[16] 0.00156285
3 *37:5 0.072822
*RES
1 io_in[16] *37:5 1298.51 
2 *37:5 *646:io_io_in[16] 14.7087 
*END

*D_NET *38 0.146846
*CONN
*P io_in[17] I
*I *646:io_io_in[17] I *D CaravelTopLevel
*CAP
1 io_in[17] 0.0713996
2 *646:io_io_in[17] 0.00202349
3 *38:5 0.0734231
*RES
1 io_in[17] *38:5 1301.06 
2 *38:5 *646:io_io_in[17] 13.9649 
*END

*D_NET *39 0.148561
*CONN
*P io_in[18] I
*I *646:io_io_in[18] I *D CaravelTopLevel
*CAP
1 io_in[18] 0.00150966
2 *646:io_io_in[18] 0.00203877
3 *39:13 0.0727709
4 *39:11 0.0722418
*RES
1 io_in[18] *39:11 17.1185 
2 *39:11 *39:13 1288.88 
3 *39:13 *646:io_io_in[18] 11.5332 
*END

*D_NET *40 0.149711
*CONN
*P io_in[19] I
*I *646:io_io_in[19] I *D CaravelTopLevel
*CAP
1 io_in[19] 0.0713996
2 *646:io_io_in[19] 0.00345575
3 *40:5 0.0748553
*RES
1 io_in[19] *40:5 1301.06 
2 *40:5 *646:io_io_in[19] 17.4609 
*END

*D_NET *41 0.0122502
*CONN
*P io_in[1] I
*I *646:io_io_in[1] I *D CaravelTopLevel
*CAP
1 io_in[1] 0.0061251
2 *646:io_io_in[1] 0.0061251
*RES
1 io_in[1] *646:io_io_in[1] 16.1696 
*END

*D_NET *42 0.150936
*CONN
*P io_in[20] I
*I *646:io_io_in[20] I *D CaravelTopLevel
*CAP
1 io_in[20] 0.0713996
2 *646:io_io_in[20] 0.00406848
3 *42:5 0.0754681
*RES
1 io_in[20] *42:5 1301.06 
2 *42:5 *646:io_io_in[20] 19.2672 
*END

*D_NET *43 0.152113
*CONN
*P io_in[21] I
*I *646:io_io_in[21] I *D CaravelTopLevel
*CAP
1 io_in[21] 0.0713996
2 *646:io_io_in[21] 0.00465671
3 *43:5 0.0760563
*RES
1 io_in[21] *43:5 1301.06 
2 *43:5 *646:io_io_in[21] 21.0152 
*END

*D_NET *44 0.153695
*CONN
*P io_in[22] I
*I *646:io_io_in[22] I *D CaravelTopLevel
*CAP
1 io_in[22] 0.0713862
2 *646:io_io_in[22] 0.00544494
3 *44:5 0.0768311
4 *44:5 *120:15 3.24046e-05
*RES
1 io_in[22] *44:5 1301.06 
2 *44:5 *646:io_io_in[22] 22.7632 
*END

*D_NET *45 0.155209
*CONN
*P io_in[23] I
*I *646:io_io_in[23] I *D CaravelTopLevel
*CAP
1 io_in[23] 0.071406
2 *646:io_io_in[23] 0.00619823
3 *45:5 0.0776043
*RES
1 io_in[23] *45:5 1301.06 
2 *45:5 *646:io_io_in[23] 24.5695 
*END

*D_NET *46 0.192456
*CONN
*P io_in[24] I
*I *646:io_io_in[24] I *D CaravelTopLevel
*CAP
1 io_in[24] 0.00931712
2 *646:io_io_in[24] 0.0018544
3 *46:21 0.00728116
4 *46:19 0.00574529
5 *46:13 0.0432098
6 *46:11 0.0522083
7 *46:11 *122:17 0.0127182
8 *46:13 *47:9 0.0362321
9 *46:13 *122:9 0.0101966
10 *46:13 *122:17 0
11 *46:13 *123:9 0.00678194
12 *46:13 *125:17 0.00643634
13 *46:19 *53:11 0.00047514
*RES
1 io_in[24] *46:11 34.3821 
2 *46:11 *46:13 166.891 
3 *46:13 *46:19 1.88287 
4 *46:19 *46:21 94.965 
5 *46:21 *646:io_io_in[24] 4.68507 
*END

*D_NET *47 0.193553
*CONN
*P io_in[25] I
*I *646:io_io_in[25] I *D CaravelTopLevel
*CAP
1 io_in[25] 0.00113302
2 *646:io_io_in[25] 0.00202182
3 *47:9 0.0417129
4 *47:7 0.0408241
5 *47:9 *49:9 0.071629
6 *47:9 *125:17 0
7 *47:9 *129:17 0
8 *46:13 *47:9 0.0362321
*RES
1 io_in[25] *47:7 3.3158 
2 *47:7 *47:9 196.68 
3 *47:9 *646:io_io_in[25] 5.18033 
*END

*D_NET *48 0.170482
*CONN
*P io_in[26] I
*I *646:io_io_in[26] I *D CaravelTopLevel
*CAP
1 io_in[26] 0.00198549
2 *646:io_io_in[26] 0.00119357
3 *48:9 0.0522396
4 *48:7 0.0530315
5 *48:9 *50:9 0.0620317
6 *48:9 *84:9 0
7 *48:9 *85:9 0
8 *48:9 *86:9 0
9 *48:9 *88:9 0
*RES
1 io_in[26] *48:7 5.0638 
2 *48:7 *48:9 179.195 
3 *48:9 *646:io_io_in[26] 3.43233 
*END

*D_NET *49 0.211718
*CONN
*P io_in[27] I
*I *646:io_io_in[27] I *D CaravelTopLevel
*CAP
1 io_in[27] 0.00123358
2 *646:io_io_in[27] 0.00190122
3 *49:9 0.0218364
4 *49:7 0.0211688
5 *49:9 *53:13 0.00246014
6 *49:9 *54:9 0.0161821
7 *49:9 *87:17 0.0753071
8 *49:9 *129:17 0
9 *47:9 *49:9 0.071629
*RES
1 io_in[27] *49:7 3.43233 
2 *49:7 *49:9 161.71 
3 *49:9 *646:io_io_in[27] 5.0638 
*END

*D_NET *50 0.180118
*CONN
*P io_in[28] I
*I *646:io_io_in[28] I *D CaravelTopLevel
*CAP
1 io_in[28] 0.00204181
2 *646:io_io_in[28] 0.00111301
3 *50:9 0.023215
4 *50:7 0.0241438
5 *50:9 *51:9 0.0609384
6 *50:9 *55:9 0.00663376
7 *50:9 *86:9 0
8 *50:9 *88:9 0
9 *48:9 *50:9 0.0620317
*RES
1 io_in[28] *50:7 5.18033 
2 *50:7 *50:9 144.139 
3 *50:9 *646:io_io_in[28] 3.3158 
*END

*D_NET *51 0.159274
*CONN
*P io_in[29] I
*I *646:io_io_in[29] I *D CaravelTopLevel
*CAP
1 io_in[29] 0.00213043
2 *646:io_io_in[29] 0.00111521
3 *51:9 0.019413
4 *51:7 0.0204282
5 *51:9 *55:9 0.0048535
6 *51:9 *86:9 0
7 *51:9 *89:15 0.00101775
8 *51:9 *89:17 0.0493778
9 *50:9 *51:9 0.0609384
*RES
1 io_in[29] *51:7 5.29687 
2 *51:7 *51:9 126.654 
3 *51:9 *646:io_io_in[29] 3.19927 
*END

*D_NET *52 0.0194523
*CONN
*P io_in[2] I
*I *646:io_io_in[2] I *D CaravelTopLevel
*CAP
1 io_in[2] 0.00926309
2 *646:io_io_in[2] 0.00926309
3 *646:io_io_in[2] io_out[1] 0
4 *646:io_io_in[2] *646:io_io_in[3] 0.000926091
*RES
1 io_in[2] *646:io_io_in[2] 26.9363 
*END

*D_NET *53 0.119854
*CONN
*P io_in[30] I
*I *646:io_io_in[30] I *D CaravelTopLevel
*CAP
1 io_in[30] 0.00132693
2 *646:io_io_in[30] 0.00172017
3 *53:13 0.0369132
4 *53:11 0.03652
5 *53:13 *54:9 0.0098076
6 *53:13 *87:17 0.0300681
7 *53:13 *132:9 0.000563183
8 *46:19 *53:11 0.00047514
9 *49:9 *53:13 0.00246014
*RES
1 io_in[30] *53:11 3.82753 
2 *53:11 *53:13 109.169 
3 *53:13 *646:io_io_in[30] 4.83073 
*END

*D_NET *54 0.0884019
*CONN
*P io_in[31] I
*I *646:io_io_in[31] I *D CaravelTopLevel
*CAP
1 io_in[31] 0.00120005
2 *646:io_io_in[31] 0.0018618
3 *54:9 0.0252679
4 *54:7 0.0246062
5 *54:9 *94:9 0
6 *54:9 *129:17 0
7 *54:9 *130:17 0
8 *54:9 *131:17 0
9 *54:9 *132:9 0.00947618
10 *49:9 *54:9 0.0161821
11 *53:13 *54:9 0.0098076
*RES
1 io_in[31] *54:7 3.3158 
2 *54:7 *54:9 91.5977 
3 *54:9 *646:io_io_in[31] 5.18033 
*END

*D_NET *55 0.06626
*CONN
*P io_in[32] I
*I *646:io_io_in[32] I *D CaravelTopLevel
*CAP
1 io_in[32] 0.00204363
2 *646:io_io_in[32] 0.00109874
3 *55:9 0.0253228
4 *55:7 0.0262677
5 *646:io_io_in[32] io_out[34] 3.99114e-05
6 *55:9 *88:9 0
7 *55:9 *89:15 0
8 *50:9 *55:9 0.00663376
9 *51:9 *55:9 0.0048535
*RES
1 io_in[32] *55:7 5.0638 
2 *55:7 *55:9 74.1127 
3 *55:9 *646:io_io_in[32] 3.43233 
*END

*D_NET *56 0.0658724
*CONN
*P io_in[33] I
*I *646:io_io_in[33] I *D CaravelTopLevel
*CAP
1 io_in[33] 0.000849193
2 *646:io_io_in[33] 0.00232217
3 *56:9 0.0108851
4 *56:7 0.00941213
5 *56:9 io_oeb[34] 0.00382424
6 *56:9 *93:17 0.0154757
7 *56:9 *94:9 0.00548737
8 *56:9 *131:17 0.0176165
*RES
1 io_in[33] *56:7 2.50007 
2 *56:7 *56:9 56.5415 
3 *56:9 *646:io_io_in[33] 5.99607 
*END

*D_NET *57 0.0490323
*CONN
*P io_in[34] I
*I *646:io_io_in[34] I *D CaravelTopLevel
*CAP
1 io_in[34] 0.0124764
2 *646:io_io_in[34] 0.0124764
3 *646:io_io_in[34] io_oeb[34] 0.00171842
4 *646:io_io_in[34] *93:15 0.000685256
5 *646:io_io_in[34] *94:9 0.018501
6 *646:io_io_in[34] *131:9 0.00317496
7 *646:io_io_in[34] *131:15 0
8 *646:io_io_in[34] *132:9 0
*RES
1 io_in[34] *646:io_io_in[34] 47.5525 
*END

*D_NET *58 0.0268098
*CONN
*P io_in[35] I
*I *646:io_io_in[35] I *D CaravelTopLevel
*CAP
1 io_in[35] 0.00809444
2 *646:io_io_in[35] 0.00809444
3 *646:io_io_in[35] io_oeb[34] 0.00897474
4 *646:io_io_in[35] io_out[35] 0.00164615
*RES
1 io_in[35] *646:io_io_in[35] 29.9813 
*END

*D_NET *59 0.0148362
*CONN
*P io_in[36] I
*I *646:io_io_in[36] I *D CaravelTopLevel
*CAP
1 io_in[36] 0.00741809
2 *646:io_io_in[36] 0.00741809
*RES
1 io_in[36] *646:io_io_in[36] 20.7651 
*END

*D_NET *60 0.00858202
*CONN
*P io_in[37] I
*I *646:io_io_in[37] I *D CaravelTopLevel
*CAP
1 io_in[37] 0.00429101
2 *646:io_io_in[37] 0.00429101
*RES
1 io_in[37] *646:io_io_in[37] 11.4627 
*END

*D_NET *61 0.0292562
*CONN
*P io_in[3] I
*I *646:io_io_in[3] I *D CaravelTopLevel
*CAP
1 io_in[3] 0.011653
2 *646:io_io_in[3] 0.011653
3 *646:io_io_in[3] io_oeb[4] 0.00280351
4 *646:io_io_in[3] *646:io_io_in[4] 0.0022207
5 *646:io_io_in[2] *646:io_io_in[3] 0.000926091
*RES
1 io_in[3] *646:io_io_in[3] 37.7029 
*END

*D_NET *62 0.048092
*CONN
*P io_in[4] I
*I *646:io_io_in[4] I *D CaravelTopLevel
*CAP
1 io_in[4] 0.0107275
2 *646:io_io_in[4] 0.0107275
3 *646:io_io_in[4] io_oeb[4] 0.00149446
4 *646:io_io_in[4] *63:9 0.0139922
5 *646:io_io_in[4] *101:9 0.00874064
6 *646:io_io_in[4] *102:9 0.000189028
7 *646:io_io_in[3] *646:io_io_in[4] 0.0022207
*RES
1 io_in[4] *646:io_io_in[4] 48.4696 
*END

*D_NET *63 0.0710514
*CONN
*P io_in[5] I
*I *646:io_io_in[5] I *D CaravelTopLevel
*CAP
1 io_in[5] 0.000836584
2 *646:io_io_in[5] 0.00217955
3 *63:9 0.00903482
4 *63:7 0.00769185
5 *63:9 io_oeb[4] 0.0232577
6 *63:9 *101:9 0.00259841
7 *63:9 *102:9 0.00216145
8 *63:9 *141:9 0.00929892
9 *646:io_io_in[4] *63:9 0.0139922
*RES
1 io_in[5] *63:7 2.50007 
2 *63:7 *63:9 50.8567 
3 *63:9 *646:io_io_in[5] 5.87953 
*END

*D_NET *64 0.0638059
*CONN
*P io_in[6] I
*I *646:io_io_in[6] I *D CaravelTopLevel
*CAP
1 io_in[6] 0.00243164
2 *646:io_io_in[6] 0.000628116
3 *64:9 0.0159434
4 *64:7 0.0177469
5 *64:9 io_oeb[3] 0.00152477
6 *64:9 *646:io_io_in[7] 0.000457965
7 *64:9 *65:9 0
8 *64:9 *66:17 0.017803
9 *64:9 *139:9 0
10 *64:9 *142:9 0.00524496
11 *646:io_io_in[10] *64:9 0.00202511
*RES
1 io_in[6] *64:7 6.1126 
2 *64:7 *64:9 61.6233 
3 *64:9 *646:io_io_in[6] 2.267 
*END

*D_NET *65 0.0806962
*CONN
*P io_in[7] I
*I *646:io_io_in[7] I *D CaravelTopLevel
*CAP
1 io_in[7] 0.00214717
2 *646:io_io_in[7] 0.00267094
3 *65:9 0.0194643
4 *65:7 0.0189405
5 *646:io_io_in[7] *139:9 0.000454952
6 *65:9 *70:9 0.00731214
7 *65:9 *104:9 0.0116506
8 *65:9 *139:9 0.0132711
9 *65:9 *142:9 0.00432663
10 *64:9 *646:io_io_in[7] 0.000457965
11 *64:9 *65:9 0
*RES
1 io_in[7] *65:7 5.29687 
2 *65:7 *65:9 74.7359 
3 *65:9 *646:io_io_in[7] 9.25393 
*END

*D_NET *66 0.103904
*CONN
*P io_in[8] I
*I *646:io_io_in[8] I *D CaravelTopLevel
*CAP
1 io_in[8] 0.0112531
2 *646:io_io_in[8] 0.000635977
3 *66:17 0.01515
4 *66:15 0.0145141
5 *66:13 0.0112531
6 *66:13 *104:9 0.0234975
7 *66:17 *108:9 0.00194797
8 *66:17 *142:9 2.88643e-05
9 *646:io_io_in[10] *66:17 0.00478259
10 *646:io_io_in[12] *66:13 0
11 *31:9 *66:13 0.00303788
12 *64:9 *66:17 0.017803
*RES
1 io_in[8] *66:13 49.6134 
2 *66:13 *66:15 0.5 
3 *66:15 *66:17 57.2305 
4 *66:17 *646:io_io_in[8] 2.15047 
*END

*D_NET *67 0.127006
*CONN
*P io_in[9] I
*I *646:io_io_in[9] I *D CaravelTopLevel
*CAP
1 io_in[9] 0.000708085
2 *646:io_io_in[9] 0.00224322
3 *67:9 0.0309305
4 *67:7 0.0293953
5 *67:9 *141:9 0.00102803
6 *67:9 *143:9 0.0627012
*RES
1 io_in[9] *67:7 2.267 
2 *67:7 *67:9 119.16 
3 *67:9 *646:io_io_in[9] 6.1126 
*END

*D_NET *68 0.00856205
*CONN
*P io_oeb[0] O
*I *646:io_io_oeb[0] O *D CaravelTopLevel
*CAP
1 io_oeb[0] 0.00428102
2 *646:io_io_oeb[0] 0.00428102
*RES
1 *646:io_io_oeb[0] io_oeb[0] 12.6381 
*END

*D_NET *69 0.154181
*CONN
*P io_oeb[10] O
*I *646:io_io_oeb[10] O *D CaravelTopLevel
*CAP
1 io_oeb[10] 0.000752952
2 *646:io_io_oeb[10] 0.00230672
3 *69:9 0.030858
4 *69:7 0.0324118
5 *69:9 *102:9 0.00336067
6 *69:9 *103:9 0.00302135
7 *69:9 *105:9 0.0152298
8 *69:9 *109:9 0.0642652
9 *69:9 *111:9 0.00197469
*RES
1 *646:io_io_oeb[10] *69:7 5.96693 
2 *69:7 *69:9 861.495 
3 *69:9 io_oeb[10] 2.41267 
*END

*D_NET *70 0.190912
*CONN
*P io_oeb[11] O
*I *646:io_io_oeb[11] O *D CaravelTopLevel
*CAP
1 io_oeb[11] 0.00187042
2 *646:io_io_oeb[11] 0.00109881
3 *70:9 0.0333235
4 *70:7 0.0325519
5 *70:9 *104:9 0.0349952
6 *70:9 *142:9 0
7 *31:9 *70:9 0
8 *34:9 *70:9 0.0797598
9 *35:17 *70:9 0
10 *65:9 *70:9 0.00731214
*RES
1 *646:io_io_oeb[11] *70:7 3.19927 
2 *70:7 *70:9 164.725 
3 *70:9 io_oeb[11] 5.18033 
*END

*D_NET *71 0.25094
*CONN
*P io_oeb[12] O
*I *646:io_io_oeb[12] O *D CaravelTopLevel
*CAP
1 io_oeb[12] 0.000813483
2 *646:io_io_oeb[12] 0.00215795
3 *71:9 0.0184615
4 *71:7 0.019806
5 *71:9 *73:9 0.082043
6 *71:9 *103:9 0.00827322
7 *71:9 *105:9 0.0030913
8 *71:9 *109:9 0.0929111
9 *71:9 *111:9 0.0224022
10 *71:9 *141:9 0.000980657
*RES
1 *646:io_io_oeb[12] *71:7 5.8504 
2 *71:7 *71:9 1088.95 
3 *71:9 io_oeb[12] 2.5292 
*END

*D_NET *72 0.188741
*CONN
*P io_oeb[13] O
*I *646:io_io_oeb[13] O *D CaravelTopLevel
*CAP
1 io_oeb[13] 0.00185416
2 *646:io_io_oeb[13] 0.00103737
3 *72:9 0.0678829
4 *72:7 0.0670661
5 *34:9 *72:9 0.0509003
*RES
1 *646:io_io_oeb[13] *72:7 3.17013 
2 *72:7 *72:9 1202.18 
3 *72:9 io_oeb[13] 5.20947 
*END

*D_NET *73 0.247038
*CONN
*P io_oeb[14] O
*I *646:io_io_oeb[14] O *D CaravelTopLevel
*CAP
1 io_oeb[14] 0.000813776
2 *646:io_io_oeb[14] 0.00218769
3 *73:9 0.0542319
4 *73:7 0.0556058
5 *73:9 *111:9 0.0521557
6 *71:9 *73:9 0.082043
*RES
1 *646:io_io_oeb[14] *73:7 5.79213 
2 *73:7 *73:9 1315.91 
3 *73:9 io_oeb[14] 2.58747 
*END

*D_NET *74 0.147315
*CONN
*P io_oeb[15] O
*I *646:io_io_oeb[15] O *D CaravelTopLevel
*CAP
1 io_oeb[15] 0.00266367
2 *646:io_io_oeb[15] 7.20231e-05
3 *74:9 0.0735857
4 *74:7 0.0709941
*RES
1 *646:io_io_oeb[15] *74:7 1.35 
2 *74:7 *74:9 1292.44 
3 *74:9 io_oeb[15] 20.0901 
*END

*D_NET *75 0.145859
*CONN
*P io_oeb[16] O
*I *646:io_io_oeb[16] O *D CaravelTopLevel
*CAP
1 io_oeb[16] 0.00193543
2 *646:io_io_oeb[16] 7.20231e-05
3 *75:9 0.0728575
4 *75:7 0.0709941
*RES
1 *646:io_io_oeb[16] *75:7 1.35 
2 *75:7 *75:9 1292.44 
3 *75:9 io_oeb[16] 18.3421 
*END

*D_NET *76 0.144483
*CONN
*P io_oeb[17] O
*I *646:io_io_oeb[17] O *D CaravelTopLevel
*CAP
1 io_oeb[17] 0.0012472
2 *646:io_io_oeb[17] 7.20231e-05
3 *76:9 0.0721692
4 *76:7 0.0709941
*RES
1 *646:io_io_oeb[17] *76:7 1.35 
2 *76:7 *76:9 1292.44 
3 *76:9 io_oeb[17] 16.5941 
*END

*D_NET *77 0.143909
*CONN
*P io_oeb[18] O
*I *646:io_io_oeb[18] O *D CaravelTopLevel
*CAP
1 io_oeb[18] 0.0712552
2 *646:io_io_oeb[18] 0.000699117
3 *77:9 0.0719543
*RES
1 *646:io_io_oeb[18] *77:9 12.72 
2 *77:9 io_oeb[18] 1298.51 
*END

*D_NET *78 0.145346
*CONN
*P io_oeb[19] O
*I *646:io_io_oeb[19] O *D CaravelTopLevel
*CAP
1 io_oeb[19] 0.0713996
2 *646:io_io_oeb[19] 0.00127332
3 *78:15 0.0726729
*RES
1 *646:io_io_oeb[19] *78:15 11.8091 
2 *78:15 io_oeb[19] 1301.06 
*END

*D_NET *79 0.0183257
*CONN
*P io_oeb[1] O
*I *646:io_io_oeb[1] O *D CaravelTopLevel
*CAP
1 io_oeb[1] 0.00751109
2 *646:io_io_oeb[1] 0.00751109
3 io_oeb[1] io_oeb[2] 0.000311269
4 io_oeb[1] io_out[2] 0.00299228
*RES
1 *646:io_io_oeb[1] io_oeb[1] 23.4048 
*END

*D_NET *80 0.146737
*CONN
*P io_oeb[20] O
*I *646:io_io_oeb[20] O *D CaravelTopLevel
*CAP
1 io_oeb[20] 0.0712591
2 *646:io_io_oeb[20] 0.00210943
3 *80:15 0.0733686
*RES
1 *646:io_io_oeb[20] *80:15 16.1071 
2 *80:15 io_oeb[20] 1298.51 
*END

*D_NET *81 0.147819
*CONN
*P io_oeb[21] O
*I *646:io_io_oeb[21] O *D CaravelTopLevel
*CAP
1 io_oeb[21] 0.0713996
2 *646:io_io_oeb[21] 0.00251008
3 *81:15 0.0739097
*RES
1 *646:io_io_oeb[21] *81:15 15.3633 
2 *81:15 io_oeb[21] 1301.06 
*END

*D_NET *82 0.149359
*CONN
*P io_oeb[22] O
*I *646:io_io_oeb[22] O *D CaravelTopLevel
*CAP
1 io_oeb[22] 0.0713996
2 *646:io_io_oeb[22] 0.00327991
3 *82:13 0.0746795
*RES
1 *646:io_io_oeb[22] *82:13 16.7196 
2 *82:13 io_oeb[22] 1301.06 
*END

*D_NET *83 0.157961
*CONN
*P io_oeb[23] O
*I *646:io_io_oeb[23] O *D CaravelTopLevel
*CAP
1 io_oeb[23] 0.0714129
2 *646:io_io_oeb[23] 0.00402652
3 *83:15 0.0754394
4 io_oeb[23] *89:17 0.00708261
*RES
1 *646:io_io_oeb[23] *83:15 18.8593 
2 *83:15 io_oeb[23] 1301.06 
*END

*D_NET *84 0.222678
*CONN
*P io_oeb[24] O
*I *646:io_io_oeb[24] O *D CaravelTopLevel
*CAP
1 io_oeb[24] 0.00217466
2 *646:io_io_oeb[24] 0.000789184
3 *84:9 0.0716346
4 *84:7 0.0702491
5 *84:9 *86:9 0.0778308
6 *48:9 *84:9 0
*RES
1 *646:io_io_oeb[24] *84:7 2.50007 
2 *84:7 *84:9 208.05 
3 *84:9 io_oeb[24] 5.99607 
*END

*D_NET *85 0.208352
*CONN
*P io_oeb[25] O
*I *646:io_io_oeb[25] O *D CaravelTopLevel
*CAP
1 io_oeb[25] 0.00163796
2 *646:io_io_oeb[25] 0.00147685
3 *85:9 0.0776153
4 *85:7 0.0774542
5 *85:9 *88:9 0.0501676
6 *48:9 *85:9 0
*RES
1 *646:io_io_oeb[25] *85:7 4.13153 
2 *85:7 *85:9 190.565 
3 *85:9 io_oeb[25] 4.3646 
*END

*D_NET *86 0.176471
*CONN
*P io_oeb[26] O
*I *646:io_io_oeb[26] O *D CaravelTopLevel
*CAP
1 io_oeb[26] 0.00233589
2 *646:io_io_oeb[26] 0.000829733
3 *86:9 0.0452139
4 *86:7 0.0437077
5 *86:9 *87:15 0.00147568
6 *86:9 *89:17 0.00507711
7 *48:9 *86:9 0
8 *50:9 *86:9 0
9 *51:9 *86:9 0
10 *84:9 *86:9 0.0778308
*RES
1 *646:io_io_oeb[26] *86:7 2.6166 
2 *86:7 *86:9 172.994 
3 *86:9 io_oeb[26] 5.87953 
*END

*D_NET *87 0.181964
*CONN
*P io_oeb[27] O
*I *646:io_io_oeb[27] O *D CaravelTopLevel
*CAP
1 io_oeb[27] 0.00131413
2 *646:io_io_oeb[27] 0.00669873
3 *87:17 0.0288874
4 *87:15 0.034272
5 *87:15 *89:17 0.0039404
6 *49:9 *87:17 0.0753071
7 *53:13 *87:17 0.0300681
8 *86:9 *87:15 0.00147568
*RES
1 *646:io_io_oeb[27] *87:15 24.1974 
2 *87:15 *87:17 137.335 
3 *87:17 io_oeb[27] 3.54887 
*END

*D_NET *88 0.137482
*CONN
*P io_oeb[28] O
*I *646:io_io_oeb[28] O *D CaravelTopLevel
*CAP
1 io_oeb[28] 0.00183858
2 *646:io_io_oeb[28] 0.00137627
3 *88:9 0.0422811
4 *88:7 0.0418187
5 *48:9 *88:9 0
6 *50:9 *88:9 0
7 *55:9 *88:9 0
8 *85:9 *88:9 0.0501676
*RES
1 *646:io_io_oeb[28] *88:7 4.015 
2 *88:7 *88:9 137.937 
3 *88:9 io_oeb[28] 4.48113 
*END

*D_NET *89 0.13202
*CONN
*P io_oeb[29] O
*I *646:io_io_oeb[29] O *D CaravelTopLevel
*CAP
1 io_oeb[29] 0.00219997
2 *646:io_io_oeb[29] 0.01328
3 *89:17 0.0194821
4 *89:15 0.0305621
5 io_oeb[23] *89:17 0.00708261
6 *51:9 *89:15 0.00101775
7 *51:9 *89:17 0.0493778
8 *55:9 *89:15 0
9 *86:9 *89:17 0.00507711
10 *87:15 *89:17 0.0039404
*RES
1 *646:io_io_oeb[29] *89:15 33.6398 
2 *89:15 *89:17 90.0473 
3 *89:17 io_oeb[29] 5.4134 
*END

*D_NET *90 0.0294705
*CONN
*P io_oeb[2] O
*I *646:io_io_oeb[2] O *D CaravelTopLevel
*CAP
1 io_oeb[2] 0.00926891
2 *646:io_io_oeb[2] 0.00926891
3 io_oeb[2] io_oeb[3] 0.00627142
4 io_oeb[2] io_out[2] 0.00434994
5 io_oeb[1] io_oeb[2] 0.000311269
*RES
1 *646:io_io_oeb[2] io_oeb[2] 34.1715 
*END

*D_NET *91 0.130834
*CONN
*P io_oeb[30] O
*I *646:io_io_oeb[30] O *D CaravelTopLevel
*CAP
1 io_oeb[30] 0.000849215
2 *646:io_io_oeb[30] 0.00215095
3 *91:17 0.00918659
4 *91:15 0.00856289
5 *91:9 0.00360082
6 *91:7 0.00552624
7 *91:9 *92:9 0.00164026
8 *91:9 *127:9 0.00870036
9 *91:9 *129:9 0.016909
10 *91:9 *130:9 0.0106182
11 *91:9 *130:17 0.0020846
12 *91:9 *131:17 0.00125934
13 *91:17 *92:17 0.00715422
14 *91:17 *126:17 0.0140448
15 *91:17 *127:17 0.00246014
16 *91:17 *129:17 0.0315868
17 *91:17 *130:17 1.4641e-05
18 *91:17 *131:17 0.00448533
*RES
1 *646:io_io_oeb[30] *91:7 5.61733 
2 *91:7 *91:9 219.915 
3 *91:9 *91:15 1.41673 
4 *91:15 *91:17 65.8439 
5 *91:17 io_oeb[30] 2.50007 
*END

*D_NET *92 0.0896736
*CONN
*P io_oeb[31] O
*I *646:io_io_oeb[31] O *D CaravelTopLevel
*CAP
1 io_oeb[31] 0.00068756
2 *646:io_io_oeb[31] 0.00217099
3 *92:17 0.0197142
4 *92:15 0.0193737
5 *92:9 0.00452681
6 *92:7 0.00635075
7 *92:9 *94:9 0.00503324
8 *92:9 *130:9 0.00319783
9 *92:9 *131:9 0.00113452
10 *92:15 io_oeb[33] 0
11 *92:17 *93:17 0.0184657
12 *92:17 *127:17 0.0002131
13 *92:17 *131:17 1.07366e-05
14 *91:9 *92:9 0.00164026
15 *91:17 *92:17 0.00715422
*RES
1 *646:io_io_oeb[31] *92:7 5.6756 
2 *92:7 *92:9 110.265 
3 *92:9 *92:15 1.70807 
4 *92:15 *92:17 66.7913 
5 *92:17 io_oeb[31] 2.15047 
*END

*D_NET *93 0.0724462
*CONN
*P io_oeb[32] O
*I *646:io_io_oeb[32] O *D CaravelTopLevel
*CAP
1 io_oeb[32] 0.000778588
2 *646:io_io_oeb[32] 0.00328508
3 *93:17 0.0138282
4 *93:15 0.0163346
5 *93:15 io_oeb[34] 0
6 *93:17 *131:17 0.00359302
7 *646:io_io_in[34] *93:15 0.000685256
8 *56:9 *93:17 0.0154757
9 *92:17 *93:17 0.0184657
*RES
1 *646:io_io_oeb[32] *93:15 22.6721 
2 *93:15 *93:17 65.3271 
3 *93:17 io_oeb[32] 2.267 
*END

*D_NET *94 0.0708533
*CONN
*P io_oeb[33] O
*I *646:io_io_oeb[33] O *D CaravelTopLevel
*CAP
1 io_oeb[33] 0.000970298
2 *646:io_io_oeb[33] 0.00206455
3 *94:9 0.00899776
4 *94:7 0.010092
5 *94:9 io_oeb[34] 0.00946654
6 *94:9 *130:9 0.00166489
7 *94:9 *131:17 0.00857574
8 *94:9 *132:9 0
9 *646:io_io_in[34] *94:9 0.018501
10 *54:9 *94:9 0
11 *56:9 *94:9 0.00548737
12 *92:9 *94:9 0.00503324
13 *92:15 io_oeb[33] 0
*RES
1 *646:io_io_oeb[33] *94:7 5.763 
2 *94:7 *94:9 50.3399 
3 *94:9 io_oeb[33] 2.73313 
*END

*D_NET *95 0.0447253
*CONN
*P io_oeb[34] O
*I *646:io_io_oeb[34] O *D CaravelTopLevel
*CAP
1 io_oeb[34] 0.00815262
2 *646:io_io_oeb[34] 0.00815262
3 io_oeb[34] io_oeb[35] 9.4688e-05
4 io_oeb[34] io_out[35] 0.00434144
5 *646:io_io_in[34] io_oeb[34] 0.00171842
6 *646:io_io_in[35] io_oeb[34] 0.00897474
7 *56:9 io_oeb[34] 0.00382424
8 *93:15 io_oeb[34] 0
9 *94:9 io_oeb[34] 0.00946654
*RES
1 *646:io_io_oeb[34] io_oeb[34] 41.3509 
*END

*D_NET *96 0.0201782
*CONN
*P io_oeb[35] O
*I *646:io_io_oeb[35] O *D CaravelTopLevel
*CAP
1 io_oeb[35] 0.00722505
2 *646:io_io_oeb[35] 0.00722505
3 io_oeb[35] io_out[35] 0.00563339
4 io_oeb[34] io_oeb[35] 9.4688e-05
*RES
1 *646:io_io_oeb[35] io_oeb[35] 23.8659 
*END

*D_NET *97 0.0103651
*CONN
*P io_oeb[36] O
*I *646:io_io_oeb[36] O *D CaravelTopLevel
*CAP
1 io_oeb[36] 0.00518256
2 *646:io_io_oeb[36] 0.00518256
3 io_oeb[36] io_out[36] 0
*RES
1 *646:io_io_oeb[36] io_oeb[36] 14.5635 
*END

*D_NET *98 0.00904699
*CONN
*P io_oeb[37] O
*I *646:io_io_oeb[37] O *D CaravelTopLevel
*CAP
1 io_oeb[37] 0.00452349
2 *646:io_io_oeb[37] 0.00452349
*RES
1 *646:io_io_oeb[37] io_oeb[37] 11.7211 
*END

*D_NET *99 0.0375409
*CONN
*P io_oeb[3] O
*I *646:io_io_oeb[3] O *D CaravelTopLevel
*CAP
1 io_oeb[3] 0.0140854
2 *646:io_io_oeb[3] 0.0140854
3 io_oeb[3] io_out[2] 0.00157385
4 io_oeb[3] io_out[3] 0
5 io_oeb[3] *139:9 0
6 io_oeb[2] io_oeb[3] 0.00627142
7 *64:9 io_oeb[3] 0.00152477
*RES
1 *646:io_io_oeb[3] io_oeb[3] 44.9381 
*END

*D_NET *100 0.0550211
*CONN
*P io_oeb[4] O
*I *646:io_io_oeb[4] O *D CaravelTopLevel
*CAP
1 io_oeb[4] 0.0115091
2 *646:io_io_oeb[4] 0.00222366
3 *100:7 0.0137327
4 *646:io_io_in[3] io_oeb[4] 0.00280351
5 *646:io_io_in[4] io_oeb[4] 0.00149446
6 *63:9 io_oeb[4] 0.0232577
*RES
1 *646:io_io_oeb[4] *100:7 5.99607 
2 *100:7 io_oeb[4] 49.7087 
*END

*D_NET *101 0.0638341
*CONN
*P io_oeb[5] O
*I *646:io_io_oeb[5] O *D CaravelTopLevel
*CAP
1 io_oeb[5] 0.000937828
2 *646:io_io_oeb[5] 0.00194401
3 *101:9 0.0149819
4 *101:7 0.0159881
5 io_oeb[5] *105:7 8.2024e-05
6 *101:7 io_out[3] 0
7 *101:9 *140:9 0
8 *101:9 *141:9 0.0185611
9 *646:io_io_in[4] *101:9 0.00874064
10 *63:9 *101:9 0.00259841
*RES
1 *646:io_io_oeb[5] *101:7 5.64647 
2 *101:7 *101:9 58.0919 
3 *101:9 io_oeb[5] 2.73313 
*END

*D_NET *102 0.0781823
*CONN
*P io_oeb[6] O
*I *646:io_io_oeb[6] O *D CaravelTopLevel
*CAP
1 io_oeb[6] 0.000858989
2 *646:io_io_oeb[6] 0.00206996
3 *102:9 0.0155102
4 *102:7 0.0167212
5 *102:9 *103:9 0.0287448
6 *102:9 *141:9 0.00856596
7 *646:io_io_in[4] *102:9 0.000189028
8 *63:9 *102:9 0.00216145
9 *69:9 *102:9 0.00336067
*RES
1 *646:io_io_oeb[6] *102:7 5.8504 
2 *102:7 *102:9 407.595 
3 *102:9 io_oeb[6] 2.5292 
*END

*D_NET *103 0.106102
*CONN
*P io_oeb[7] O
*I *646:io_io_oeb[7] O *D CaravelTopLevel
*CAP
1 io_oeb[7] 0.000898148
2 *646:io_io_oeb[7] 0.00216697
3 *103:9 0.0192376
4 *103:7 0.0205064
5 *103:9 *105:9 0.00470711
6 *103:9 *109:9 0.00147501
7 *103:9 *141:9 0.0170709
8 *69:9 *103:9 0.00302135
9 *71:9 *103:9 0.00827322
10 *102:9 *103:9 0.0287448
*RES
1 *646:io_io_oeb[7] *103:7 5.79213 
2 *103:7 *103:9 520.815 
3 *103:9 io_oeb[7] 2.58747 
*END

*D_NET *104 0.121516
*CONN
*P io_oeb[8] O
*I *646:io_io_oeb[8] O *D CaravelTopLevel
*CAP
1 io_oeb[8] 0.00203437
2 *646:io_io_oeb[8] 0.00115937
3 *104:9 0.0227954
4 *104:7 0.0219204
5 *104:9 *139:9 0.00346329
6 *31:9 *104:9 0
7 *65:9 *104:9 0.0116506
8 *66:13 *104:9 0.0234975
9 *70:9 *104:9 0.0349952
*RES
1 *646:io_io_oeb[8] *104:7 3.3158 
2 *104:7 *104:9 107.188 
3 *104:9 io_oeb[8] 5.0638 
*END

*D_NET *105 0.197816
*CONN
*P io_oeb[9] O
*I *646:io_io_oeb[9] O *D CaravelTopLevel
*CAP
1 io_oeb[9] 0.000808969
2 *646:io_io_oeb[9] 0.00211259
3 *105:9 0.0175666
4 *105:7 0.0188702
5 *105:9 *107:9 0
6 *105:9 *109:9 0.0106932
7 *105:9 *111:9 0.0323267
8 *105:9 *141:9 0.0277033
9 *105:9 *143:9 0.0646239
10 io_oeb[5] *105:7 8.2024e-05
11 *69:9 *105:9 0.0152298
12 *71:9 *105:9 0.0030913
13 *103:9 *105:9 0.00470711
*RES
1 *646:io_io_oeb[9] *105:7 5.87953 
2 *105:7 *105:9 126.396 
3 *105:9 io_oeb[9] 2.50007 
*END

*D_NET *106 0.0062282
*CONN
*P io_out[0] O
*I *646:io_io_out[0] O *D CaravelTopLevel
*CAP
1 io_out[0] 0.0031141
2 *646:io_io_out[0] 0.0031141
*RES
1 *646:io_io_out[0] io_out[0] 8.4056 
*END

*D_NET *107 0.150374
*CONN
*P io_out[10] O
*I *646:io_io_out[10] O *D CaravelTopLevel
*CAP
1 io_out[10] 0.00123775
2 *646:io_io_out[10] 0.00176065
3 *107:9 0.0350859
4 *107:7 0.0356088
5 *107:9 *111:9 0
6 *107:9 *140:9 0.00409371
7 *107:9 *141:9 0
8 *32:9 *107:9 0.0725875
9 *105:9 *107:9 0
*RES
1 *646:io_io_out[10] *107:7 4.94727 
2 *107:7 *107:9 141.986 
3 *107:9 io_out[10] 3.43233 
*END

*D_NET *108 0.185354
*CONN
*P io_out[11] O
*I *646:io_io_out[11] O *D CaravelTopLevel
*CAP
1 io_out[11] 0.00215913
2 *646:io_io_out[11] 0.000783578
3 *108:9 0.0328843
4 *108:7 0.0315088
5 *108:9 *142:9 0.0330072
6 *646:io_io_in[10] *108:7 0
7 *33:9 *108:9 0.0830635
8 *34:9 *108:9 0
9 *66:17 *108:9 0.00194797
*RES
1 *646:io_io_out[11] *108:7 2.50007 
2 *108:7 *108:9 161.107 
3 *108:9 io_out[11] 5.87953 
*END

*D_NET *109 0.228838
*CONN
*P io_out[12] O
*I *646:io_io_out[12] O *D CaravelTopLevel
*CAP
1 io_out[12] 0.000762083
2 *646:io_io_out[12] 0.00220823
3 *109:9 0.0227265
4 *109:7 0.0241726
5 *109:9 *111:9 0.00959829
6 *35:15 io_out[12] 2.55441e-05
7 *69:9 *109:9 0.0642652
8 *71:9 *109:9 0.0929111
9 *103:9 *109:9 0.00147501
10 *105:9 *109:9 0.0106932
*RES
1 *646:io_io_out[12] *109:7 5.90867 
2 *109:7 *109:9 1067.54 
3 *109:9 io_out[12] 2.47093 
*END

*D_NET *110 0.19757
*CONN
*P io_out[13] O
*I *646:io_io_out[13] O *D CaravelTopLevel
*CAP
1 io_out[13] 0.00231735
2 *646:io_io_out[13] 0.000628116
3 *110:9 0.0549843
4 *110:7 0.0532951
5 *33:9 *110:9 0.0863451
6 *34:9 *110:9 0
*RES
1 *646:io_io_out[13] *110:7 2.267 
2 *110:7 *110:9 199.523 
3 *110:9 io_out[13] 6.1126 
*END

*D_NET *111 0.275673
*CONN
*P io_out[14] O
*I *646:io_io_out[14] O *D CaravelTopLevel
*CAP
1 io_out[14] 0.000837806
2 *646:io_io_out[14] 0.00227473
3 *111:9 0.067082
4 *111:7 0.068519
5 *32:9 *111:9 0
6 *35:9 *111:9 0.0185017
7 *69:9 *111:9 0.00197469
8 *71:9 *111:9 0.0224022
9 *73:9 *111:9 0.0521557
10 *105:9 *111:9 0.0323267
11 *107:9 *111:9 0
12 *109:9 *111:9 0.00959829
*RES
1 *646:io_io_out[14] *111:7 5.763 
2 *111:7 *111:9 218.644 
3 *111:9 io_out[14] 2.6166 
*END

*D_NET *112 0.145129
*CONN
*P io_out[15] O
*I *646:io_io_out[15] O *D CaravelTopLevel
*CAP
1 io_out[15] 0.00157049
2 *646:io_io_out[15] 7.20231e-05
3 *112:9 0.0724925
4 *112:7 0.0709941
*RES
1 *646:io_io_out[15] *112:7 1.35 
2 *112:7 *112:9 1292.44 
3 *112:9 io_out[15] 17.2933 
*END

*D_NET *113 0.143637
*CONN
*P io_out[16] O
*I *646:io_io_out[16] O *D CaravelTopLevel
*CAP
1 io_out[16] 0.00422076
2 *646:io_io_out[16] 7.20231e-05
3 *113:11 0.00426455
4 *113:9 0.0675258
5 *113:7 0.067554
*RES
1 *646:io_io_out[16] *113:7 1.35 
2 *113:7 *113:9 1229.86 
3 *113:9 *113:11 0.795 
4 *113:11 io_out[16] 76.9125 
*END

*D_NET *114 0.144798
*CONN
*P io_out[17] O
*I *646:io_io_out[17] O *D CaravelTopLevel
*CAP
1 io_out[17] 0.00104445
2 *646:io_io_out[17] 0.000875121
3 *114:15 0.0715238
4 *114:13 0.0713545
*RES
1 *646:io_io_out[17] *114:13 12.6272 
2 *114:13 *114:15 1284.29 
3 *114:15 io_out[17] 16.0114 
*END

*D_NET *115 0.146245
*CONN
*P io_out[18] O
*I *646:io_io_out[18] O *D CaravelTopLevel
*CAP
1 io_out[18] 0.00107996
2 *646:io_io_out[18] 0.00156312
3 *115:17 0.0715593
4 *115:15 0.0720425
*RES
1 *646:io_io_out[18] *115:15 14.7669 
2 *115:15 *115:17 1284.29 
3 *115:17 io_out[18] 16.0114 
*END

*D_NET *116 0.147373
*CONN
*P io_out[19] O
*I *646:io_io_out[19] O *D CaravelTopLevel
*CAP
1 io_out[19] 0.0713996
2 *646:io_io_out[19] 0.00228679
3 *116:15 0.0736864
*RES
1 *646:io_io_out[19] *116:15 14.6641 
2 *116:15 io_out[19] 1301.06 
*END

*D_NET *117 0.0151679
*CONN
*P io_out[1] O
*I *646:io_io_out[1] O *D CaravelTopLevel
*CAP
1 io_out[1] 0.00758396
2 *646:io_io_out[1] 0.00758396
3 *646:io_io_in[2] io_out[1] 0
*RES
1 *646:io_io_out[1] io_out[1] 19.7872 
*END

*D_NET *118 0.148996
*CONN
*P io_out[20] O
*I *646:io_io_out[20] O *D CaravelTopLevel
*CAP
1 io_out[20] 0.00106473
2 *646:io_io_out[20] 0.00281341
3 *118:15 0.0716845
4 *118:13 0.0734332
*RES
1 *646:io_io_out[20] *118:13 15.3212 
2 *118:13 *118:15 1286.83 
3 *118:15 io_out[20] 16.0697 
*END

*D_NET *119 0.150169
*CONN
*P io_out[21] O
*I *646:io_io_out[21] O *D CaravelTopLevel
*CAP
1 io_out[21] 0.00106473
2 *646:io_io_out[21] 0.00339995
3 *119:17 0.0716845
4 *119:15 0.0740198
*RES
1 *646:io_io_out[21] *119:15 17.4609 
2 *119:15 *119:17 1286.83 
3 *119:17 io_out[21] 16.0697 
*END

*D_NET *120 0.151546
*CONN
*P io_out[22] O
*I *646:io_io_out[22] O *D CaravelTopLevel
*CAP
1 io_out[22] 0.00114045
2 *646:io_io_out[22] 0.00402486
3 *120:17 0.0717322
4 *120:15 0.0746166
5 *44:5 *120:15 3.24046e-05
*RES
1 *646:io_io_out[22] *120:15 19.7189 
2 *120:15 *120:17 1286.32 
3 *120:17 io_out[22] 16.128 
*END

*D_NET *121 0.152807
*CONN
*P io_out[23] O
*I *646:io_io_out[23] O *D CaravelTopLevel
*CAP
1 io_out[23] 0.00529045
2 *646:io_io_out[23] 7.20231e-05
3 *121:9 0.0763313
4 *121:7 0.0711129
*RES
1 *646:io_io_out[23] *121:7 1.35 
2 *121:7 *121:9 1294.48 
3 *121:9 io_out[23] 25.5665 
*END

*D_NET *122 0.222737
*CONN
*P io_out[24] O
*I *646:io_io_out[24] O *D CaravelTopLevel
*CAP
1 io_out[24] 0.000768659
2 *646:io_io_out[24] 0.00218035
3 *122:17 0.0290554
4 *122:15 0.0285409
5 *122:9 0.0205221
6 *122:7 0.0224484
7 *122:9 *123:9 0.0244561
8 *122:17 *123:17 0.0540093
9 *122:17 *125:17 0.0178411
10 *46:11 *122:17 0.0127182
11 *46:13 *122:9 0.0101966
12 *46:13 *122:17 0
*RES
1 *646:io_io_out[24] *122:7 5.55907 
2 *122:7 *122:9 471.345 
3 *122:9 *122:15 1.59153 
4 *122:15 *122:17 131.564 
5 *122:17 io_out[24] 2.38353 
*END

*D_NET *123 0.238677
*CONN
*P io_out[25] O
*I *646:io_io_out[25] O *D CaravelTopLevel
*CAP
1 io_out[25] 0.000762172
2 *646:io_io_out[25] 0.00227353
3 *123:17 0.0195737
4 *123:15 0.0190942
5 *123:9 0.0113381
6 *123:7 0.013329
7 *123:9 *124:9 0.00241918
8 *123:9 *125:9 0.0110534
9 *123:9 *129:17 0.00131383
10 *123:15 io_out[29] 1.24541e-05
11 *123:17 *124:17 0.0541209
12 *123:17 *125:17 0.000190283
13 *123:17 *126:17 0.0179485
14 *46:13 *123:9 0.00678194
15 *122:9 *123:9 0.0244561
16 *122:17 *123:17 0.0540093
*RES
1 *646:io_io_out[25] *123:7 5.61733 
2 *123:7 *123:9 365.265 
3 *123:9 *123:15 1.6498 
4 *123:15 *123:17 131.994 
5 *123:17 io_out[25] 2.267 
*END

*D_NET *124 0.195415
*CONN
*P io_out[26] O
*I *646:io_io_out[26] O *D CaravelTopLevel
*CAP
1 io_out[26] 0.00068756
2 *646:io_io_out[26] 0.00220736
3 *124:17 0.0360432
4 *124:15 0.0356061
5 *124:9 0.00813213
6 *124:7 0.010089
7 *124:9 *125:9 0.0192356
8 *124:9 *126:9 0.00537667
9 *124:9 *129:17 0.00195092
10 *124:9 *130:17 0.00132078
11 *124:15 io_out[30] 0.000171073
12 *124:17 *126:17 3.56399e-05
13 *124:17 *127:17 0.0180186
14 *123:9 *124:9 0.00241918
15 *123:17 *124:17 0.0541209
*RES
1 *646:io_io_out[26] *124:7 5.73387 
2 *124:7 *124:9 261.735 
3 *124:9 *124:15 1.6498 
4 *124:15 *124:17 131.908 
5 *124:17 io_out[26] 2.15047 
*END

*D_NET *125 0.177118
*CONN
*P io_out[27] O
*I *646:io_io_out[27] O *D CaravelTopLevel
*CAP
1 io_out[27] 0.000899693
2 *646:io_io_out[27] 0.00214983
3 *125:17 0.022246
4 *125:15 0.0215208
5 *125:9 0.00650173
6 *125:7 0.00847714
7 *125:9 *126:9 0.00477969
8 *125:9 *127:9 0.00548962
9 *125:9 *129:17 0.00567236
10 *125:17 *126:17 0.04037
11 *125:17 *129:17 0.00425486
12 *46:13 *125:17 0.00643634
13 *47:9 *125:17 0
14 *122:17 *125:17 0.0178411
15 *123:9 *125:9 0.0110534
16 *123:17 *125:17 0.000190283
17 *124:9 *125:9 0.0192356
*RES
1 *646:io_io_out[27] *125:7 5.6756 
2 *125:7 *125:9 307.125 
3 *125:9 *125:15 1.35847 
4 *125:15 *125:17 106.757 
5 *125:17 io_out[27] 2.50007 
*END

*D_NET *126 0.180207
*CONN
*P io_out[28] O
*I *646:io_io_out[28] O *D CaravelTopLevel
*CAP
1 io_out[28] 0.000808666
2 *646:io_io_out[28] 0.00219327
3 *126:17 0.0115639
4 *126:15 0.0109482
5 *126:9 0.00972453
6 *126:7 0.0117249
7 *126:9 *127:9 0
8 *126:9 *129:9 0.0027963
9 *126:9 *129:17 0.00874326
10 *126:9 *130:17 0.00108832
11 *126:9 *131:17 0.00121366
12 *126:17 *127:17 0.0366894
13 *126:17 *129:17 0.000157068
14 *91:17 *126:17 0.0140448
15 *123:17 *126:17 0.0179485
16 *124:9 *126:9 0.00537667
17 *124:17 *126:17 3.56399e-05
18 *125:9 *126:9 0.00477969
19 *125:17 *126:17 0.04037
*RES
1 *646:io_io_out[28] *126:7 5.79213 
2 *126:7 *126:9 243.885 
3 *126:9 *126:15 1.35847 
4 *126:15 *126:17 99.8665 
5 *126:17 io_out[28] 2.38353 
*END

*D_NET *127 0.136179
*CONN
*P io_out[29] O
*I *646:io_io_out[29] O *D CaravelTopLevel
*CAP
1 io_out[29] 0.000774397
2 *646:io_io_out[29] 0.00202773
3 *127:17 0.0146764
4 *127:15 0.0142543
5 *127:9 0.0114652
6 *127:7 0.0131406
7 *127:9 *129:9 0.00250624
8 *127:9 *130:17 0.00575013
9 *91:9 *127:9 0.00870036
10 *91:17 *127:17 0.00246014
11 *92:17 *127:17 0.0002131
12 *123:15 io_out[29] 1.24541e-05
13 *124:17 *127:17 0.0180186
14 *125:9 *127:9 0.00548962
15 *126:9 *127:9 0
16 *126:17 *127:17 0.0366894
*RES
1 *646:io_io_out[29] *127:7 5.55907 
2 *127:7 *127:9 289.275 
3 *127:9 *127:15 1.70807 
4 *127:15 *127:17 74.7156 
5 *127:17 io_out[29] 2.267 
*END

*D_NET *128 0.0257604
*CONN
*P io_out[2] O
*I *646:io_io_out[2] O *D CaravelTopLevel
*CAP
1 io_out[2] 0.00842217
2 *646:io_io_out[2] 0.00842217
3 io_out[2] io_out[3] 0
4 io_oeb[1] io_out[2] 0.00299228
5 io_oeb[2] io_out[2] 0.00434994
6 io_oeb[3] io_out[2] 0.00157385
*RES
1 *646:io_io_out[2] io_out[2] 30.5539 
*END

*D_NET *129 0.145363
*CONN
*P io_out[30] O
*I *646:io_io_out[30] O *D CaravelTopLevel
*CAP
1 io_out[30] 0.000853426
2 *646:io_io_out[30] 0.00217449
3 *129:17 0.0123129
4 *129:15 0.0115865
5 *129:9 0.00742919
6 *129:7 0.00947665
7 *129:9 *130:17 0.00561222
8 *129:9 *131:17 0.0018826
9 *129:15 io_out[32] 2.38374e-05
10 *129:17 *130:17 0.0179499
11 *47:9 *129:17 0
12 *49:9 *129:17 0
13 *54:9 *129:17 0
14 *91:9 *129:9 0.016909
15 *91:17 *129:17 0.0315868
16 *123:9 *129:17 0.00131383
17 *124:9 *129:17 0.00195092
18 *124:15 io_out[30] 0.000171073
19 *125:9 *129:17 0.00567236
20 *125:17 *129:17 0.00425486
21 *126:9 *129:9 0.0027963
22 *126:9 *129:17 0.00874326
23 *126:17 *129:17 0.000157068
24 *127:9 *129:9 0.00250624
*RES
1 *646:io_io_out[30] *129:7 5.6756 
2 *129:7 *129:9 237.255 
3 *129:9 *129:15 1.24193 
4 *129:15 *129:17 66.0161 
5 *129:17 io_out[30] 2.6166 
*END

*D_NET *130 0.111571
*CONN
*P io_out[31] O
*I *646:io_io_out[31] O *D CaravelTopLevel
*CAP
1 io_out[31] 0.00101031
2 *646:io_io_out[31] 0.00209655
3 *130:17 0.014987
4 *130:15 0.0140995
5 *130:9 0.00646882
6 *130:7 0.00844249
7 *130:9 *131:17 0.00137185
8 *130:17 *131:17 0.0137932
9 *54:9 *130:17 0
10 *91:9 *130:9 0.0106182
11 *91:9 *130:17 0.0020846
12 *91:17 *130:17 1.4641e-05
13 *92:9 *130:9 0.00319783
14 *94:9 *130:9 0.00166489
15 *124:9 *130:17 0.00132078
16 *126:9 *130:17 0.00108832
17 *127:9 *130:17 0.00575013
18 *129:9 *130:17 0.00561222
19 *129:17 *130:17 0.0179499
*RES
1 *646:io_io_out[31] *130:7 5.55907 
2 *130:7 *130:9 180.135 
3 *130:9 *130:15 1.24193 
4 *130:15 *130:17 58.0919 
5 *130:17 io_out[31] 2.73313 
*END

*D_NET *131 0.0902719
*CONN
*P io_out[32] O
*I *646:io_io_out[32] O *D CaravelTopLevel
*CAP
1 io_out[32] 0.000883901
2 *646:io_io_out[32] 0.00198774
3 *131:17 0.00971079
4 *131:15 0.00900082
5 *131:9 0.00436978
6 *131:7 0.0061836
7 *646:io_io_in[34] *131:9 0.00317496
8 *646:io_io_in[34] *131:15 0
9 *54:9 *131:17 0
10 *56:9 *131:17 0.0176165
11 *91:9 *131:17 0.00125934
12 *91:17 *131:17 0.00448533
13 *92:9 *131:9 0.00113452
14 *92:17 *131:17 1.07366e-05
15 *93:17 *131:17 0.00359302
16 *94:9 *131:17 0.00857574
17 *126:9 *131:17 0.00121366
18 *129:9 *131:17 0.0018826
19 *129:15 io_out[32] 2.38374e-05
20 *130:9 *131:17 0.00137185
21 *130:17 *131:17 0.0137932
*RES
1 *646:io_io_out[32] *131:7 5.55907 
2 *131:7 *131:9 83.235 
3 *131:9 *131:15 1.35847 
4 *131:15 *131:17 56.9721 
5 *131:17 io_out[32] 2.6166 
*END

*D_NET *132 0.0518103
*CONN
*P io_out[33] O
*I *646:io_io_out[33] O *D CaravelTopLevel
*CAP
1 io_out[33] 0.00131171
2 *646:io_io_out[33] 0.00180125
3 *132:9 0.0190842
4 *132:7 0.0195738
5 *646:io_io_in[34] *132:9 0
6 *53:13 *132:9 0.000563183
7 *54:9 *132:9 0.00947618
8 *94:9 *132:9 0
*RES
1 *646:io_io_out[33] *132:7 5.0638 
2 *132:7 *132:9 53.4407 
3 *132:9 io_out[33] 3.43233 
*END

*D_NET *133 0.032419
*CONN
*P io_out[34] O
*I *646:io_io_out[34] O *D CaravelTopLevel
*CAP
1 io_out[34] 0.0161895
2 *646:io_io_out[34] 0.0161895
3 *646:io_io_in[32] io_out[34] 3.99114e-05
*RES
1 *646:io_io_out[34] io_out[34] 44.4517 
*END

*D_NET *134 0.0254074
*CONN
*P io_out[35] O
*I *646:io_io_out[35] O *D CaravelTopLevel
*CAP
1 io_out[35] 0.00689321
2 *646:io_io_out[35] 0.00689321
3 io_oeb[34] io_out[35] 0.00434144
4 io_oeb[35] io_out[35] 0.00563339
5 *646:io_io_in[35] io_out[35] 0.00164615
*RES
1 *646:io_io_out[35] io_out[35] 26.8805 
*END

*D_NET *135 0.0127302
*CONN
*P io_out[36] O
*I *646:io_io_out[36] O *D CaravelTopLevel
*CAP
1 io_out[36] 0.00636512
2 *646:io_io_out[36] 0.00636512
3 io_oeb[36] io_out[36] 0
*RES
1 *646:io_io_out[36] io_out[36] 17.6643 
*END

*D_NET *136 0.00589662
*CONN
*P io_out[37] O
*I *646:io_io_out[37] O *D CaravelTopLevel
*CAP
1 io_out[37] 0.00294831
2 *646:io_io_out[37] 0.00294831
*RES
1 *646:io_io_out[37] io_out[37] 7.6684 
*END

*D_NET *137 0.0327046
*CONN
*P io_out[3] O
*I *646:io_io_out[3] O *D CaravelTopLevel
*CAP
1 io_out[3] 0.0130153
2 *646:io_io_out[3] 0.0130153
3 io_out[3] *138:11 0.00450797
4 io_out[3] *139:9 0.00216609
5 io_oeb[3] io_out[3] 0
6 io_out[2] io_out[3] 0
7 *101:7 io_out[3] 0
*RES
1 *646:io_io_out[3] io_out[3] 41.3205 
*END

*D_NET *138 0.0482454
*CONN
*P io_out[4] O
*I *646:io_io_out[4] O *D CaravelTopLevel
*CAP
1 io_out[4] 0.00162108
2 *646:io_io_out[4] 0.0119056
3 *138:11 0.0135266
4 io_out[4] *141:7 0.000673922
5 *138:11 *139:9 0.0160102
6 io_out[3] *138:11 0.00450797
*RES
1 *646:io_io_out[4] *138:11 47.5234 
2 *138:11 io_out[4] 4.5638 
*END

*D_NET *139 0.0646232
*CONN
*P io_out[5] O
*I *646:io_io_out[5] O *D CaravelTopLevel
*CAP
1 io_out[5] 0.00201354
2 *646:io_io_out[5] 0.00106601
3 *139:9 0.0135628
4 *139:7 0.0126152
5 io_oeb[3] *139:9 0
6 io_out[3] *139:9 0.00216609
7 *646:io_io_in[7] *139:9 0.000454952
8 *64:9 *139:9 0
9 *65:9 *139:9 0.0132711
10 *104:9 *139:9 0.00346329
11 *138:11 *139:9 0.0160102
*RES
1 *646:io_io_out[5] *139:7 3.19927 
2 *139:7 *139:9 54.4743 
3 *139:9 io_out[5] 5.18033 
*END

*D_NET *140 0.0622415
*CONN
*P io_out[6] O
*I *646:io_io_out[6] O *D CaravelTopLevel
*CAP
1 io_out[6] 0.00133746
2 *646:io_io_out[6] 0.00166016
3 *140:9 0.0274137
4 *140:7 0.0277364
5 *140:9 *141:9 0
6 *101:9 *140:9 0
7 *107:9 *140:9 0.00409371
*RES
1 *646:io_io_out[6] *140:7 4.83073 
2 *140:7 *140:9 65.2409 
3 *140:9 io_out[6] 3.54887 
*END

*D_NET *141 0.124972
*CONN
*P io_out[7] O
*I *646:io_io_out[7] O *D CaravelTopLevel
*CAP
1 io_out[7] 0.000922217
2 *646:io_io_out[7] 0.00179636
3 *141:9 0.017998
4 *141:7 0.0188722
5 *141:9 *143:9 0.00150027
6 io_out[4] *141:7 0.000673922
7 *63:9 *141:9 0.00929892
8 *67:9 *141:9 0.00102803
9 *71:9 *141:9 0.000980657
10 *101:9 *141:9 0.0185611
11 *102:9 *141:9 0.00856596
12 *103:9 *141:9 0.0170709
13 *105:9 *141:9 0.0277033
14 *107:9 *141:9 0
15 *140:9 *141:9 0
*RES
1 *646:io_io_out[7] *141:7 5.763 
2 *141:7 *141:9 84.4487 
3 *141:9 io_out[7] 2.6166 
*END

*D_NET *142 0.103023
*CONN
*P io_out[8] O
*I *646:io_io_out[8] O *D CaravelTopLevel
*CAP
1 io_out[8] 0.00226499
2 *646:io_io_out[8] 0.000845328
3 *142:9 0.0251065
4 *142:7 0.0236868
5 *646:io_io_in[10] *142:9 0.00593558
6 *34:9 *142:9 0.00257603
7 *64:9 *142:9 0.00524496
8 *65:9 *142:9 0.00432663
9 *66:17 *142:9 2.88643e-05
10 *70:9 *142:9 0
11 *108:9 *142:9 0.0330072
*RES
1 *646:io_io_out[8] *142:7 2.6166 
2 *142:7 *142:9 103.57 
3 *142:9 io_out[8] 5.763 
*END

*D_NET *143 0.163539
*CONN
*P io_out[9] O
*I *646:io_io_out[9] O *D CaravelTopLevel
*CAP
1 io_out[9] 0.000751211
2 *646:io_io_out[9] 0.00218264
3 *143:9 0.0151741
4 *143:7 0.0166055
5 *67:9 *143:9 0.0627012
6 *105:9 *143:9 0.0646239
7 *141:9 *143:9 0.00150027
*RES
1 *646:io_io_out[9] *143:7 5.99607 
2 *143:7 *143:9 122.778 
3 *143:9 io_out[9] 2.38353 
*END

*D_NET *144 0.0112933
*CONN
*P la_data_in[0] I
*I *646:io_la_data_in[0] I *D CaravelTopLevel
*CAP
1 la_data_in[0] 0.00235917
2 *646:io_la_data_in[0] 0.00235917
3 *646:io_la_data_in[0] la_data_out[0] 0
4 *646:io_la_data_in[0] la_data_out[3] 0
5 *646:io_la_data_in[0] wbs_dat_o[28] 8.95485e-05
6 *646:io_la_data_in[0] wbs_dat_o[29] 0.000525848
7 *646:io_la_data_in[0] *646:io_la_data_in[1] 0.00123474
8 *646:io_la_data_in[0] *646:io_la_data_in[2] 0.00070417
9 *646:io_la_data_in[0] *646:io_la_oenb[0] 0.000531473
10 *646:io_la_data_in[0] *646:io_wbs_adr_i[29] 0
11 *646:io_la_data_in[0] *646:io_wbs_dat_i[30] 0.00227804
12 *646:io_la_data_in[0] *646:io_wbs_dat_i[31] 0.000180279
13 *646:io_la_data_in[0] *205:9 0
14 *646:io_la_data_in[0] *311:11 0.00103083
*RES
1 la_data_in[0] *646:io_la_data_in[0] 17.9874 
*END

*D_NET *145 0.0100494
*CONN
*P la_data_in[100] I
*I *646:io_la_data_in[100] I *D CaravelTopLevel
*CAP
1 la_data_in[100] 0.00331887
2 *646:io_la_data_in[100] 0.00331887
3 *646:io_la_data_in[100] la_data_out[100] 0
4 *646:io_la_data_in[100] la_data_out[103] 0.000499216
5 *646:io_la_data_in[100] la_data_out[96] 0
6 *646:io_la_data_in[100] la_data_out[99] 0.000184873
7 *646:io_la_data_in[100] *646:io_la_data_in[103] 0.00028208
8 *646:io_la_data_in[100] *646:io_la_data_in[98] 0.0012514
9 *646:io_la_data_in[100] *646:io_la_data_in[99] 0.000606552
10 *646:io_la_data_in[100] *646:io_la_oenb[103] 0
11 *646:io_la_data_in[100] *646:io_la_oenb[96] 0.000298055
12 *646:io_la_data_in[100] *273:13 0.000289483
*RES
1 la_data_in[100] *646:io_la_data_in[100] 20.3467 
*END

*D_NET *146 0.0135414
*CONN
*P la_data_in[101] I
*I *646:io_la_data_in[101] I *D CaravelTopLevel
*CAP
1 la_data_in[101] 0.00213212
2 *646:io_la_data_in[101] 0.00213212
3 *646:io_la_data_in[101] la_data_out[101] 0.00490202
4 *646:io_la_data_in[101] la_data_out[99] 0.0028529
5 *646:io_la_data_in[101] *646:io_la_data_in[103] 0.000539597
6 *646:io_la_data_in[101] *646:io_la_data_in[104] 0.000704178
7 *646:io_la_data_in[101] *646:io_la_oenb[103] 0.000128225
8 *646:io_la_data_in[101] *401:11 0.000150287
*RES
1 la_data_in[101] *646:io_la_data_in[101] 21.2698 
*END

*D_NET *147 0.00875176
*CONN
*P la_data_in[102] I
*I *646:io_la_data_in[102] I *D CaravelTopLevel
*CAP
1 la_data_in[102] 0.00437588
2 *646:io_la_data_in[102] 0.00437588
3 *646:io_la_data_in[102] *646:io_la_data_in[106] 0
4 *646:io_la_data_in[102] *646:io_la_oenb[105] 0
*RES
1 la_data_in[102] *646:io_la_data_in[102] 19.477 
*END

*D_NET *148 0.0133512
*CONN
*P la_data_in[103] I
*I *646:io_la_data_in[103] I *D CaravelTopLevel
*CAP
1 la_data_in[103] 0.00170542
2 *646:io_la_data_in[103] 0.00170542
3 *646:io_la_data_in[103] la_data_out[103] 0.00497638
4 *646:io_la_data_in[103] la_data_out[99] 1.2782e-05
5 *646:io_la_data_in[103] *646:io_la_data_in[104] 0.00412952
6 *646:io_la_data_in[100] *646:io_la_data_in[103] 0.00028208
7 *646:io_la_data_in[101] *646:io_la_data_in[103] 0.000539597
*RES
1 la_data_in[103] *646:io_la_data_in[103] 20.7546 
*END

*D_NET *149 0.0134328
*CONN
*P la_data_in[104] I
*I *646:io_la_data_in[104] I *D CaravelTopLevel
*CAP
1 la_data_in[104] 0.00168495
2 *646:io_la_data_in[104] 0.00168495
3 *646:io_la_data_in[104] la_data_out[100] 8.72106e-05
4 *646:io_la_data_in[104] la_data_out[101] 0.000108575
5 *646:io_la_data_in[104] la_data_out[103] 0.000301688
6 *646:io_la_data_in[104] la_data_out[105] 0.000437921
7 *646:io_la_data_in[104] *646:io_la_data_in[105] 0.00418235
8 *646:io_la_data_in[104] *646:io_la_oenb[101] 3.0463e-06
9 *646:io_la_data_in[104] *401:11 0.000108366
10 *646:io_la_data_in[101] *646:io_la_data_in[104] 0.000704178
11 *646:io_la_data_in[103] *646:io_la_data_in[104] 0.00412952
*RES
1 la_data_in[104] *646:io_la_data_in[104] 20.3559 
*END

*D_NET *150 0.0141682
*CONN
*P la_data_in[105] I
*I *646:io_la_data_in[105] I *D CaravelTopLevel
*CAP
1 la_data_in[105] 0.00217413
2 *646:io_la_data_in[105] 0.00217413
3 *646:io_la_data_in[105] la_data_out[105] 0.000477001
4 *646:io_la_data_in[105] *646:io_la_data_in[106] 0.00433858
5 *646:io_la_data_in[105] *646:io_la_oenb[101] 0.000302301
6 *646:io_la_data_in[105] *646:io_la_oenb[103] 0.000147514
7 *646:io_la_data_in[105] *275:11 0.000125561
8 *646:io_la_data_in[105] *403:11 0.000135989
9 *646:io_la_data_in[105] *404:11 0.000110612
10 *646:io_la_data_in[104] *646:io_la_data_in[105] 0.00418235
*RES
1 la_data_in[105] *646:io_la_data_in[105] 21.9574 
*END

*D_NET *151 0.0142158
*CONN
*P la_data_in[106] I
*I *646:io_la_data_in[106] I *D CaravelTopLevel
*CAP
1 la_data_in[106] 0.00226695
2 *646:io_la_data_in[106] 0.00226695
3 *646:io_la_data_in[106] la_data_out[105] 0.000105843
4 *646:io_la_data_in[106] la_data_out[106] 0.00512843
5 *646:io_la_data_in[106] *403:11 0.000109008
6 *646:io_la_data_in[102] *646:io_la_data_in[106] 0
7 *646:io_la_data_in[105] *646:io_la_data_in[106] 0.00433858
*RES
1 la_data_in[106] *646:io_la_data_in[106] 22.9411 
*END

*D_NET *152 0.0137711
*CONN
*P la_data_in[107] I
*I *646:io_la_data_in[107] I *D CaravelTopLevel
*CAP
1 la_data_in[107] 0.00021353
2 *646:io_la_data_in[107] 0.000409496
3 *152:13 0.00142792
4 *152:11 0.00123195
5 *646:io_la_data_in[107] *646:io_la_oenb[106] 0
6 *152:11 *646:io_la_data_in[111] 8.55687e-05
7 *152:13 la_data_out[105] 0.000616251
8 *152:13 *154:11 0.00291341
9 *152:13 *405:15 0.00233182
10 *152:13 *406:13 0.00386053
11 *152:13 *409:13 0.000314063
12 *152:13 *412:11 0.000366576
*RES
1 la_data_in[107] *152:11 6.485 
2 *152:11 *152:13 52.2 
3 *152:13 *646:io_la_data_in[107] 9.3425 
*END

*D_NET *153 0.0113808
*CONN
*P la_data_in[108] I
*I *646:io_la_data_in[108] I *D CaravelTopLevel
*CAP
1 la_data_in[108] 0.00292512
2 *646:io_la_data_in[108] 0.00292512
3 *646:io_la_data_in[108] la_data_out[105] 0
4 *646:io_la_data_in[108] la_data_out[108] 0.00552911
5 *646:io_la_data_in[108] la_data_out[112] 1.47615e-06
6 *646:io_la_data_in[108] *646:io_la_data_in[110] 0
*RES
1 la_data_in[108] *646:io_la_data_in[108] 21.512 
*END

*D_NET *154 0.0132005
*CONN
*P la_data_in[109] I
*I *646:io_la_data_in[109] I *D CaravelTopLevel
*CAP
1 la_data_in[109] 0.000354838
2 *646:io_la_data_in[109] 0.000447519
3 *154:11 0.00139894
4 *154:9 0.00130626
5 *154:9 *409:11 0
6 *154:11 la_data_out[105] 0.000108382
7 *154:11 *409:13 0.00537524
8 *154:11 *412:11 0.000883232
9 *154:11 *414:13 0.000412635
10 *152:13 *154:11 0.00291341
*RES
1 la_data_in[109] *154:9 7.325 
2 *154:9 *154:11 52.2 
3 *154:11 *646:io_la_data_in[109] 9.7775 
*END

*D_NET *155 0.00580955
*CONN
*P la_data_in[10] I
*I *646:io_la_data_in[10] I *D CaravelTopLevel
*CAP
1 la_data_in[10] 0.00224687
2 *646:io_la_data_in[10] 0.00224687
3 *646:io_la_data_in[10] la_data_out[7] 0
4 *646:io_la_data_in[10] la_data_out[8] 0.00120735
5 *646:io_la_data_in[10] *646:io_la_oenb[7] 0.000108453
*RES
1 la_data_in[10] *646:io_la_data_in[10] 47.1175 
*END

*D_NET *156 0.0121574
*CONN
*P la_data_in[110] I
*I *646:io_la_data_in[110] I *D CaravelTopLevel
*CAP
1 la_data_in[110] 0.00308621
2 *646:io_la_data_in[110] 0.00308621
3 *646:io_la_data_in[110] la_data_out[110] 0.000526213
4 *646:io_la_data_in[110] la_data_out[111] 0.00122335
5 *646:io_la_data_in[110] la_data_out[112] 0.00159128
6 *646:io_la_data_in[110] *646:io_la_data_in[113] 0.00201813
7 *646:io_la_data_in[110] *646:io_la_oenb[114] 0
8 *646:io_la_data_in[110] *288:9 0.000626024
9 *646:io_la_data_in[108] *646:io_la_data_in[110] 0
*RES
1 la_data_in[110] *646:io_la_data_in[110] 20.6423 
*END

*D_NET *157 0.0112655
*CONN
*P la_data_in[111] I
*I *646:io_la_data_in[111] I *D CaravelTopLevel
*CAP
1 la_data_in[111] 0.00449752
2 *646:io_la_data_in[111] 0.00449752
3 *646:io_la_data_in[111] *280:11 0.000161545
4 *646:io_la_data_in[111] *408:11 0.00018118
5 *646:io_la_data_in[111] *410:11 0.00184214
6 *152:11 *646:io_la_data_in[111] 8.55687e-05
*RES
1 la_data_in[111] *646:io_la_data_in[111] 23.8047 
*END

*D_NET *158 0.0115705
*CONN
*P la_data_in[112] I
*I *646:io_la_data_in[112] I *D CaravelTopLevel
*CAP
1 la_data_in[112] 0.000125508
2 *646:io_la_data_in[112] 0.000504544
3 *158:9 0.00264777
4 *158:7 0.00226874
5 *646:io_la_data_in[112] *646:io_la_oenb[111] 0
6 *158:7 *646:io_la_oenb[116] 0
7 *158:9 *289:11 0.000432668
8 *158:9 *413:11 0.00559124
*RES
1 la_data_in[112] *158:7 4.22 
2 *158:7 *158:9 57.375 
3 *158:9 *646:io_la_data_in[112] 10.3625 
*END

*D_NET *159 0.0145955
*CONN
*P la_data_in[113] I
*I *646:io_la_data_in[113] I *D CaravelTopLevel
*CAP
1 la_data_in[113] 0.00254481
2 *646:io_la_data_in[113] 0.00254481
3 *646:io_la_data_in[113] la_data_out[111] 0.00400819
4 *646:io_la_data_in[113] la_data_out[112] 0.000100792
5 *646:io_la_data_in[113] *646:io_la_data_in[115] 0.00119908
6 *646:io_la_data_in[113] *646:io_la_oenb[114] 0.00210386
7 *646:io_la_data_in[113] *646:io_la_oenb[117] 7.58408e-05
8 *646:io_la_data_in[113] *291:9 0
9 *646:io_la_data_in[110] *646:io_la_data_in[113] 0.00201813
*RES
1 la_data_in[113] *646:io_la_data_in[113] 23.6538 
*END

*D_NET *160 0.0123797
*CONN
*P la_data_in[114] I
*I *646:io_la_data_in[114] I *D CaravelTopLevel
*CAP
1 la_data_in[114] 0.0027052
2 *646:io_la_data_in[114] 0.0027052
3 *646:io_la_data_in[114] la_data_out[112] 0.00169978
4 *646:io_la_data_in[114] *646:io_la_data_in[116] 0.0037225
5 *646:io_la_data_in[114] *646:io_la_data_in[117] 0.00139544
6 *646:io_la_data_in[114] *646:io_la_oenb[114] 2.58293e-06
7 *646:io_la_data_in[114] *646:io_la_oenb[118] 0.000149011
*RES
1 la_data_in[114] *646:io_la_data_in[114] 22.0993 
*END

*D_NET *161 0.011151
*CONN
*P la_data_in[115] I
*I *646:io_la_data_in[115] I *D CaravelTopLevel
*CAP
1 la_data_in[115] 0.00395371
2 *646:io_la_data_in[115] 0.00395371
3 *646:io_la_data_in[115] la_data_out[111] 0.00126917
4 *646:io_la_data_in[115] la_data_out[115] 0
5 *646:io_la_data_in[115] *646:io_la_data_in[117] 0
6 *646:io_la_data_in[115] *646:io_la_data_in[120] 0
7 *646:io_la_data_in[115] *646:io_la_oenb[114] 0.000687025
8 *646:io_la_data_in[115] *646:io_la_oenb[119] 8.8272e-05
9 *646:io_la_data_in[113] *646:io_la_data_in[115] 0.00119908
*RES
1 la_data_in[115] *646:io_la_data_in[115] 22.9298 
*END

*D_NET *162 0.0161167
*CONN
*P la_data_in[116] I
*I *646:io_la_data_in[116] I *D CaravelTopLevel
*CAP
1 la_data_in[116] 0.00198049
2 *646:io_la_data_in[116] 0.00198049
3 *646:io_la_data_in[116] la_data_out[111] 0
4 *646:io_la_data_in[116] la_data_out[116] 0.00627769
5 *646:io_la_data_in[116] *646:io_la_data_in[117] 0.000197328
6 *646:io_la_data_in[116] *646:io_la_data_in[119] 0.000823272
7 *646:io_la_data_in[116] *646:io_la_data_in[120] 0.00113493
8 *646:io_la_data_in[116] *646:io_la_oenb[120] 0
9 *646:io_la_data_in[114] *646:io_la_data_in[116] 0.0037225
*RES
1 la_data_in[116] *646:io_la_data_in[116] 22.6774 
*END

*D_NET *163 0.0135795
*CONN
*P la_data_in[117] I
*I *646:io_la_data_in[117] I *D CaravelTopLevel
*CAP
1 la_data_in[117] 0.00221121
2 *646:io_la_data_in[117] 0.00221121
3 *646:io_la_data_in[117] la_data_out[112] 5.21698e-05
4 *646:io_la_data_in[117] la_data_out[117] 0
5 *646:io_la_data_in[117] *646:io_la_data_in[119] 0.00412406
6 *646:io_la_data_in[117] *646:io_la_oenb[114] 0.00196404
7 *646:io_la_data_in[117] *646:io_la_oenb[116] 0
8 *646:io_la_data_in[117] *646:io_la_oenb[119] 0.00142402
9 *646:io_la_data_in[114] *646:io_la_data_in[117] 0.00139544
10 *646:io_la_data_in[115] *646:io_la_data_in[117] 0
11 *646:io_la_data_in[116] *646:io_la_data_in[117] 0.000197328
*RES
1 la_data_in[117] *646:io_la_data_in[117] 22.0502 
*END

*D_NET *164 0.0164404
*CONN
*P la_data_in[118] I
*I *646:io_la_data_in[118] I *D CaravelTopLevel
*CAP
1 la_data_in[118] 0.00218831
2 *646:io_la_data_in[118] 0.00218831
3 *646:io_la_data_in[118] la_data_out[116] 0.00445029
4 *646:io_la_data_in[118] la_data_out[119] 0.00515893
5 *646:io_la_data_in[118] la_data_out[121] 0.00230606
6 *646:io_la_data_in[118] *646:io_la_data_in[121] 0.000148545
7 *646:io_la_data_in[118] *646:io_la_oenb[122] 0
*RES
1 la_data_in[118] *646:io_la_data_in[118] 23.027 
*END

*D_NET *165 0.0164485
*CONN
*P la_data_in[119] I
*I *646:io_la_data_in[119] I *D CaravelTopLevel
*CAP
1 la_data_in[119] 0.00194935
2 *646:io_la_data_in[119] 0.00194935
3 *646:io_la_data_in[119] *646:io_la_data_in[120] 0.00568775
4 *646:io_la_data_in[119] *646:io_la_data_in[123] 0.0014213
5 *646:io_la_data_in[119] *646:io_la_oenb[119] 0.000493412
6 *646:io_la_data_in[116] *646:io_la_data_in[119] 0.000823272
7 *646:io_la_data_in[117] *646:io_la_data_in[119] 0.00412406
*RES
1 la_data_in[119] *646:io_la_data_in[119] 22.8568 
*END

*D_NET *166 0.00722483
*CONN
*P la_data_in[11] I
*I *646:io_la_data_in[11] I *D CaravelTopLevel
*CAP
1 la_data_in[11] 0.0019267
2 *646:io_la_data_in[11] 0.0019267
3 *646:io_la_data_in[11] la_data_out[10] 0.00253137
4 *646:io_la_data_in[11] la_data_out[12] 0.000516621
5 *646:io_la_data_in[11] la_data_out[13] 0.000323433
6 *646:io_la_data_in[11] la_data_out[9] 0
7 *646:io_la_data_in[11] *646:io_la_data_in[9] 0
8 *646:io_la_data_in[11] *646:io_la_oenb[10] 0
9 *646:io_la_data_in[11] *646:io_la_oenb[8] 0
*RES
1 la_data_in[11] *646:io_la_data_in[11] 17.783 
*END

*D_NET *167 0.0177506
*CONN
*P la_data_in[120] I
*I *646:io_la_data_in[120] I *D CaravelTopLevel
*CAP
1 la_data_in[120] 0.00182553
2 *646:io_la_data_in[120] 0.00182553
3 *646:io_la_data_in[120] la_data_out[116] 0.000172052
4 *646:io_la_data_in[120] la_data_out[124] 0.00106444
5 *646:io_la_data_in[120] *646:io_la_data_in[121] 0.00577425
6 *646:io_la_data_in[120] *646:io_la_data_in[123] 0.000266079
7 *646:io_la_data_in[120] *295:9 0
8 *646:io_la_data_in[120] *300:9 0
9 *646:io_la_data_in[115] *646:io_la_data_in[120] 0
10 *646:io_la_data_in[116] *646:io_la_data_in[120] 0.00113493
11 *646:io_la_data_in[119] *646:io_la_data_in[120] 0.00568775
*RES
1 la_data_in[120] *646:io_la_data_in[120] 23.3183 
*END

*D_NET *168 0.0176593
*CONN
*P la_data_in[121] I
*I *646:io_la_data_in[121] I *D CaravelTopLevel
*CAP
1 la_data_in[121] 0.00194719
2 *646:io_la_data_in[121] 0.00194719
3 *646:io_la_data_in[121] la_data_out[116] 0.000222979
4 *646:io_la_data_in[121] la_data_out[121] 0.00677629
5 *646:io_la_data_in[121] la_data_out[124] 0.000842838
6 *646:io_la_data_in[121] la_data_out[126] 0
7 *646:io_la_data_in[121] *646:io_la_data_in[126] 0
8 *646:io_la_data_in[118] *646:io_la_data_in[121] 0.000148545
9 *646:io_la_data_in[120] *646:io_la_data_in[121] 0.00577425
*RES
1 la_data_in[121] *646:io_la_data_in[121] 23.4348 
*END

*D_NET *169 0.0184816
*CONN
*P la_data_in[122] I
*I *646:io_la_data_in[122] I *D CaravelTopLevel
*CAP
1 la_data_in[122] 0.00222041
2 *646:io_la_data_in[122] 0.00222041
3 *646:io_la_data_in[122] la_data_out[122] 0.00674114
4 *646:io_la_data_in[122] *646:io_la_data_in[125] 0.0030749
5 *646:io_la_data_in[122] *646:io_la_oenb[119] 0.00385255
6 *646:io_la_data_in[122] *646:io_la_oenb[121] 0.000247942
7 *646:io_la_data_in[122] *646:io_la_oenb[124] 0.000124238
8 *646:io_la_data_in[122] *302:9 0
*RES
1 la_data_in[122] *646:io_la_data_in[122] 24.1338 
*END

*D_NET *170 0.018161
*CONN
*P la_data_in[123] I
*I *646:io_la_data_in[123] I *D CaravelTopLevel
*CAP
1 la_data_in[123] 0.00201412
2 *646:io_la_data_in[123] 0.00201412
3 *646:io_la_data_in[123] la_data_out[124] 0.00553832
4 *646:io_la_data_in[123] *646:io_la_data_in[124] 0.00615406
5 *646:io_la_data_in[123] *646:io_la_oenb[119] 0.000511925
6 *646:io_la_data_in[123] *646:io_user_clock2 0
7 *646:io_la_data_in[123] *529:9 0.000241033
8 *646:io_la_data_in[123] *530:9 0
9 *646:io_la_data_in[119] *646:io_la_data_in[123] 0.0014213
10 *646:io_la_data_in[120] *646:io_la_data_in[123] 0.000266079
*RES
1 la_data_in[123] *646:io_la_data_in[123] 23.7262 
*END

*D_NET *171 0.0185411
*CONN
*P la_data_in[124] I
*I *646:io_la_data_in[124] I *D CaravelTopLevel
*CAP
1 la_data_in[124] 0.00208901
2 *646:io_la_data_in[124] 0.00208901
3 *646:io_la_data_in[124] la_data_out[124] 0.000857524
4 *646:io_la_data_in[124] *646:io_la_oenb[119] 0.000491733
5 *646:io_la_data_in[124] *646:io_la_oenb[124] 0.00655065
6 *646:io_la_data_in[124] *428:15 0.000309163
7 *646:io_la_data_in[123] *646:io_la_data_in[124] 0.00615406
*RES
1 la_data_in[124] *646:io_la_data_in[124] 22.7924 
*END

*D_NET *172 0.0176403
*CONN
*P la_data_in[125] I
*I *646:io_la_data_in[125] I *D CaravelTopLevel
*CAP
1 la_data_in[125] 0.00358653
2 *646:io_la_data_in[125] 0.00358653
3 *646:io_la_data_in[125] la_data_out[122] 0.000206607
4 *646:io_la_data_in[125] *646:io_la_oenb[124] 0.0070919
5 *646:io_la_data_in[125] *646:io_la_oenb[126] 9.38683e-05
6 *646:io_la_data_in[122] *646:io_la_data_in[125] 0.0030749
*RES
1 la_data_in[125] *646:io_la_data_in[125] 22.8564 
*END

*D_NET *173 0.0168384
*CONN
*P la_data_in[126] I
*I *646:io_la_data_in[126] I *D CaravelTopLevel
*CAP
1 la_data_in[126] 8.0907e-05
2 *646:io_la_data_in[126] 0.000757596
3 *173:11 0.0034354
4 *173:9 0.00275871
5 *646:io_la_data_in[126] *423:11 0
6 *173:11 la_data_out[126] 0.00316039
7 *173:11 *300:11 0.00664544
8 *646:io_la_data_in[121] *646:io_la_data_in[126] 0
*RES
1 la_data_in[126] *173:9 2.975 
2 *173:9 *173:11 69.105 
3 *173:11 *646:io_la_data_in[126] 14.4575 
*END

*D_NET *174 0.019262
*CONN
*P la_data_in[127] I
*I *646:io_la_data_in[127] I *D CaravelTopLevel
*CAP
1 la_data_in[127] 0.00201321
2 *646:io_la_data_in[127] 0.00201321
3 *646:io_la_data_in[127] la_data_out[123] 0.00248899
4 *646:io_la_data_in[127] user_irq[2] 0.00514061
5 *646:io_la_data_in[127] *646:io_la_oenb[121] 0
6 *646:io_la_data_in[127] *646:io_la_oenb[126] 0.000643271
7 *646:io_la_data_in[127] *646:io_la_oenb[127] 0.00696266
*RES
1 la_data_in[127] *646:io_la_data_in[127] 23.5652 
*END

*D_NET *175 0.00827909
*CONN
*P la_data_in[12] I
*I *646:io_la_data_in[12] I *D CaravelTopLevel
*CAP
1 la_data_in[12] 0.00144278
2 *646:io_la_data_in[12] 0.00144278
3 *646:io_la_data_in[12] la_data_out[10] 0.000121993
4 *646:io_la_data_in[12] la_data_out[11] 0.00243138
5 *646:io_la_data_in[12] la_data_out[12] 0.000222897
6 *646:io_la_data_in[12] *646:io_la_oenb[11] 0.000158569
7 *646:io_la_data_in[12] *646:io_la_oenb[12] 0.00236387
8 *646:io_la_data_in[12] *646:io_la_oenb[9] 9.48304e-05
*RES
1 la_data_in[12] *646:io_la_data_in[12] 17.6664 
*END

*D_NET *176 0.00867237
*CONN
*P la_data_in[13] I
*I *646:io_la_data_in[13] I *D CaravelTopLevel
*CAP
1 la_data_in[13] 0.00118158
2 *646:io_la_data_in[13] 0.00118158
3 *646:io_la_data_in[13] la_data_out[12] 0.00233461
4 *646:io_la_data_in[13] la_data_out[14] 4.36274e-05
5 *646:io_la_data_in[13] *646:io_la_data_in[15] 0.000147719
6 *646:io_la_data_in[13] *646:io_la_oenb[10] 9.23664e-05
7 *646:io_la_data_in[13] *646:io_la_oenb[12] 0.00281056
8 *646:io_la_data_in[13] *646:io_la_oenb[13] 0.000101523
9 *646:io_la_data_in[13] *646:io_la_oenb[14] 0.000778815
*RES
1 la_data_in[13] *646:io_la_data_in[13] 17.4916 
*END

*D_NET *177 0.0071105
*CONN
*P la_data_in[14] I
*I *646:io_la_data_in[14] I *D CaravelTopLevel
*CAP
1 la_data_in[14] 0.00165626
2 *646:io_la_data_in[14] 0.00165626
3 *646:io_la_data_in[14] *646:io_la_oenb[11] 0.000167227
4 *646:io_la_data_in[14] *646:io_la_oenb[13] 0.00275764
5 *646:io_la_data_in[14] *646:io_la_oenb[14] 0.000246551
6 *646:io_la_data_in[14] *646:io_la_oenb[15] 0.000626554
*RES
1 la_data_in[14] *646:io_la_data_in[14] 17.3751 
*END

*D_NET *178 0.0070078
*CONN
*P la_data_in[15] I
*I *646:io_la_data_in[15] I *D CaravelTopLevel
*CAP
1 la_data_in[15] 0.00144963
2 *646:io_la_data_in[15] 0.00144963
3 *646:io_la_data_in[15] la_data_out[14] 0.00227006
4 *646:io_la_data_in[15] la_data_out[15] 0.00150489
5 *646:io_la_data_in[15] *646:io_la_data_in[17] 0.000102601
6 *646:io_la_data_in[15] *646:io_la_oenb[14] 8.32697e-05
7 *646:io_la_data_in[13] *646:io_la_data_in[15] 0.000147719
*RES
1 la_data_in[15] *646:io_la_data_in[15] 17.8251 
*END

*D_NET *179 0.00633805
*CONN
*P la_data_in[16] I
*I *646:io_la_data_in[16] I *D CaravelTopLevel
*CAP
1 la_data_in[16] 0.00175724
2 *646:io_la_data_in[16] 0.00175724
3 *646:io_la_data_in[16] *646:io_la_oenb[13] 0
4 *646:io_la_data_in[16] *646:io_la_oenb[15] 0.00256277
5 *646:io_la_data_in[16] *646:io_la_oenb[16] 0.000260796
*RES
1 la_data_in[16] *646:io_la_data_in[16] 17.0838 
*END

*D_NET *180 0.00746118
*CONN
*P la_data_in[17] I
*I *646:io_la_data_in[17] I *D CaravelTopLevel
*CAP
1 la_data_in[17] 0.00113345
2 *646:io_la_data_in[17] 0.00113345
3 *646:io_la_data_in[17] la_data_out[15] 0.000297789
4 *646:io_la_data_in[17] la_data_out[16] 0.00194659
5 *646:io_la_data_in[17] la_data_out[17] 0.00238314
6 *646:io_la_data_in[17] *646:io_la_data_in[19] 0
7 *646:io_la_data_in[17] *646:io_la_oenb[16] 0.000305587
8 *646:io_la_data_in[17] *646:io_la_oenb[18] 0.000158575
9 *646:io_la_data_in[15] *646:io_la_data_in[17] 0.000102601
*RES
1 la_data_in[17] *646:io_la_data_in[17] 16.909 
*END

*D_NET *181 0.00670705
*CONN
*P la_data_in[18] I
*I *646:io_la_data_in[18] I *D CaravelTopLevel
*CAP
1 la_data_in[18] 0.00140065
2 *646:io_la_data_in[18] 0.00140065
3 *646:io_la_data_in[18] la_data_out[17] 0.000222592
4 *646:io_la_data_in[18] la_data_out[18] 0.00131236
5 *646:io_la_data_in[18] *646:io_la_oenb[17] 0.00237079
6 *646:io_la_data_in[18] *646:io_la_oenb[19] 0
*RES
1 la_data_in[18] *646:io_la_data_in[18] 17.6457 
*END

*D_NET *182 0.00600562
*CONN
*P la_data_in[19] I
*I *646:io_la_data_in[19] I *D CaravelTopLevel
*CAP
1 la_data_in[19] 0.00166935
2 *646:io_la_data_in[19] 0.00166935
3 *646:io_la_data_in[19] la_data_out[17] 0
4 *646:io_la_data_in[19] la_data_out[20] 0.00011974
5 *646:io_la_data_in[19] *646:io_la_data_in[21] 0
6 *646:io_la_data_in[19] *646:io_la_oenb[18] 0.00219106
7 *646:io_la_data_in[19] *646:io_la_oenb[19] 0.000278181
8 *646:io_la_data_in[19] *646:io_la_oenb[20] 7.7924e-05
9 *646:io_la_data_in[17] *646:io_la_data_in[19] 0
*RES
1 la_data_in[19] *646:io_la_data_in[19] 16.6176 
*END

*D_NET *183 0.0115281
*CONN
*P la_data_in[1] I
*I *646:io_la_data_in[1] I *D CaravelTopLevel
*CAP
1 la_data_in[1] 0.00341218
2 *646:io_la_data_in[1] 0.00341218
3 *646:io_la_data_in[1] wbs_dat_o[29] 0
4 *646:io_la_data_in[1] *646:io_la_data_in[2] 0.000195093
5 *646:io_la_data_in[1] *646:io_la_oenb[0] 0.000110525
6 *646:io_la_data_in[1] *646:io_la_oenb[1] 0.000740874
7 *646:io_la_data_in[1] *646:io_la_oenb[3] 0.000197327
8 *646:io_la_data_in[1] *646:io_wbs_adr_i[30] 0
9 *646:io_la_data_in[1] *646:io_wbs_dat_i[30] 0.000731146
10 *646:io_la_data_in[1] *646:io_wbs_dat_i[31] 0.000245023
11 *646:io_la_data_in[1] *205:9 0.000109836
12 *646:io_la_data_in[1] *311:11 0.000317308
13 *646:io_la_data_in[1] *333:13 0.00022425
14 *646:io_la_data_in[1] *631:13 0.000247298
15 *646:io_la_data_in[1] *632:15 0.000350294
16 *646:io_la_data_in[0] *646:io_la_data_in[1] 0.00123474
*RES
1 la_data_in[1] *646:io_la_data_in[1] 19.102 
*END

*D_NET *184 0.00420786
*CONN
*P la_data_in[20] I
*I *646:io_la_data_in[20] I *D CaravelTopLevel
*CAP
1 la_data_in[20] 0.00199831
2 *646:io_la_data_in[20] 0.00199831
3 *646:io_la_data_in[20] la_data_out[18] 2.3228e-05
4 *646:io_la_data_in[20] la_data_out[19] 0
5 *646:io_la_data_in[20] *646:io_la_data_in[22] 0
6 *646:io_la_data_in[20] *646:io_la_oenb[19] 0
7 *646:io_la_data_in[20] *646:io_la_oenb[21] 0.000188019
*RES
1 la_data_in[20] *646:io_la_data_in[20] 17.813 
*END

*D_NET *185 0.00654416
*CONN
*P la_data_in[21] I
*I *646:io_la_data_in[21] I *D CaravelTopLevel
*CAP
1 la_data_in[21] 0.00108367
2 *646:io_la_data_in[21] 0.00108367
3 *646:io_la_data_in[21] la_data_out[19] 9.30962e-05
4 *646:io_la_data_in[21] la_data_out[21] 0.00198318
5 *646:io_la_data_in[21] *646:io_la_data_in[22] 0.000116024
6 *646:io_la_data_in[21] *646:io_la_oenb[19] 0.000164771
7 *646:io_la_data_in[21] *646:io_la_oenb[20] 0.00201976
8 *646:io_la_data_in[19] *646:io_la_data_in[21] 0
*RES
1 la_data_in[21] *646:io_la_data_in[21] 16.3263 
*END

*D_NET *186 0.00478921
*CONN
*P la_data_in[22] I
*I *646:io_la_data_in[22] I *D CaravelTopLevel
*CAP
1 la_data_in[22] 0.00194853
2 *646:io_la_data_in[22] 0.00194853
3 *646:io_la_data_in[22] la_data_out[20] 9.20408e-05
4 *646:io_la_data_in[22] la_data_out[21] 0
5 *646:io_la_data_in[22] la_data_out[22] 0
6 *646:io_la_data_in[22] la_data_out[23] 0.000382753
7 *646:io_la_data_in[22] *646:io_la_data_in[23] 0.000181303
8 *646:io_la_data_in[22] *646:io_la_oenb[20] 0.000120028
9 *646:io_la_data_in[20] *646:io_la_data_in[22] 0
10 *646:io_la_data_in[21] *646:io_la_data_in[22] 0.000116024
*RES
1 la_data_in[22] *646:io_la_data_in[22] 17.9648 
*END

*D_NET *187 0.00520545
*CONN
*P la_data_in[23] I
*I *646:io_la_data_in[23] I *D CaravelTopLevel
*CAP
1 la_data_in[23] 0.00123413
2 *646:io_la_data_in[23] 0.00123413
3 *646:io_la_data_in[23] la_data_out[21] 8.33038e-05
4 *646:io_la_data_in[23] la_data_out[22] 0.000409751
5 *646:io_la_data_in[23] la_data_out[23] 0.000301688
6 *646:io_la_data_in[23] la_data_out[24] 0.000262928
7 *646:io_la_data_in[23] *646:io_la_data_in[24] 0.000164771
8 *646:io_la_data_in[23] *646:io_la_oenb[22] 4.15188e-05
9 *646:io_la_data_in[23] *646:io_la_oenb[23] 0.00129192
10 *646:io_la_data_in[22] *646:io_la_data_in[23] 0.000181303
*RES
1 la_data_in[23] *646:io_la_data_in[23] 16.035 
*END

*D_NET *188 0.00459004
*CONN
*P la_data_in[24] I
*I *646:io_la_data_in[24] I *D CaravelTopLevel
*CAP
1 la_data_in[24] 0.00136799
2 *646:io_la_data_in[24] 0.00136799
3 *646:io_la_data_in[24] la_data_out[24] 0.000222897
4 *646:io_la_data_in[24] la_data_out[25] 0.000183045
5 *646:io_la_data_in[24] *646:io_la_data_in[25] 0.000702287
6 *646:io_la_data_in[24] *646:io_la_oenb[22] 0.00030287
7 *646:io_la_data_in[24] *646:io_la_oenb[24] 0.000278181
8 *646:io_la_data_in[23] *646:io_la_data_in[24] 0.000164771
*RES
1 la_data_in[24] *646:io_la_data_in[24] 15.8602 
*END

*D_NET *189 0.00600528
*CONN
*P la_data_in[25] I
*I *646:io_la_data_in[25] I *D CaravelTopLevel
*CAP
1 la_data_in[25] 0.000985163
2 *646:io_la_data_in[25] 0.000985163
3 *646:io_la_data_in[25] la_data_out[25] 0.00019555
4 *646:io_la_data_in[25] la_data_out[26] 5.24319e-05
5 *646:io_la_data_in[25] *646:io_la_data_in[26] 0.000311206
6 *646:io_la_data_in[25] *646:io_la_oenb[24] 0.00163177
7 *646:io_la_data_in[25] *646:io_la_oenb[25] 0.00114171
8 *646:io_la_data_in[25] *646:io_la_oenb[26] 0
9 *646:io_la_data_in[24] *646:io_la_data_in[25] 0.000702287
*RES
1 la_data_in[25] *646:io_la_data_in[25] 15.1702 
*END

*D_NET *190 0.00498494
*CONN
*P la_data_in[26] I
*I *646:io_la_data_in[26] I *D CaravelTopLevel
*CAP
1 la_data_in[26] 0.00137187
2 *646:io_la_data_in[26] 0.00137187
3 *646:io_la_data_in[26] la_data_out[26] 0.00144922
4 *646:io_la_data_in[26] *646:io_la_oenb[24] 0.000121531
5 *646:io_la_data_in[26] *646:io_la_oenb[25] 0.000359231
6 *646:io_la_data_in[25] *646:io_la_data_in[26] 0.000311206
*RES
1 la_data_in[26] *646:io_la_data_in[26] 15.5688 
*END

*D_NET *191 0.00553016
*CONN
*P la_data_in[27] I
*I *646:io_la_data_in[27] I *D CaravelTopLevel
*CAP
1 la_data_in[27] 0.00126805
2 *646:io_la_data_in[27] 0.00126805
3 *646:io_la_data_in[27] la_data_out[25] 0
4 *646:io_la_data_in[27] la_data_out[26] 0.000985919
5 *646:io_la_data_in[27] la_data_out[27] 0.000380377
6 *646:io_la_data_in[27] *646:io_la_oenb[25] 0.000123181
7 *646:io_la_data_in[27] *646:io_la_oenb[26] 0.00150458
*RES
1 la_data_in[27] *646:io_la_data_in[27] 17.2656 
*END

*D_NET *192 0.00437043
*CONN
*P la_data_in[28] I
*I *646:io_la_data_in[28] I *D CaravelTopLevel
*CAP
1 la_data_in[28] 0.00141284
2 *646:io_la_data_in[28] 0.00141284
3 *646:io_la_data_in[28] la_data_out[28] 0.00127834
4 *646:io_la_data_in[28] la_data_out[29] 0
5 *646:io_la_data_in[28] *646:io_la_data_in[29] 0
6 *646:io_la_data_in[28] *646:io_la_oenb[27] 0.000266415
*RES
1 la_data_in[28] *646:io_la_data_in[28] 15.2775 
*END

*D_NET *193 0.00347009
*CONN
*P la_data_in[29] I
*I *646:io_la_data_in[29] I *D CaravelTopLevel
*CAP
1 la_data_in[29] 0.00141458
2 *646:io_la_data_in[29] 0.00141458
3 *646:io_la_data_in[29] la_data_out[29] 0.000154888
4 *646:io_la_data_in[29] *646:io_la_oenb[27] 0
5 *646:io_la_data_in[29] *646:io_la_oenb[28] 0.000486033
6 *646:io_la_data_in[28] *646:io_la_data_in[29] 0
*RES
1 la_data_in[29] *646:io_la_data_in[29] 15.1027 
*END

*D_NET *194 0.0100273
*CONN
*P la_data_in[2] I
*I *646:io_la_data_in[2] I *D CaravelTopLevel
*CAP
1 la_data_in[2] 0.00140982
2 *646:io_la_data_in[2] 0.00140982
3 *646:io_la_data_in[2] la_data_out[0] 0.00021896
4 *646:io_la_data_in[2] la_data_out[2] 0.00389448
5 *646:io_la_data_in[2] *646:io_la_oenb[3] 0.00189718
6 *646:io_la_data_in[2] *646:io_wbs_adr_i[31] 0.000297812
7 *646:io_la_data_in[0] *646:io_la_data_in[2] 0.00070417
8 *646:io_la_data_in[1] *646:io_la_data_in[2] 0.000195093
*RES
1 la_data_in[2] *646:io_la_data_in[2] 19.1231 
*END

*D_NET *195 0.00470799
*CONN
*P la_data_in[30] I
*I *646:io_la_data_in[30] I *D CaravelTopLevel
*CAP
1 la_data_in[30] 0.00101352
2 *646:io_la_data_in[30] 0.00101352
3 *646:io_la_data_in[30] la_data_out[29] 0.000631868
4 *646:io_la_data_in[30] la_data_out[30] 0.000219057
5 *646:io_la_data_in[30] *646:io_la_data_in[31] 0.000103162
6 *646:io_la_data_in[30] *646:io_la_oenb[29] 0.00110781
7 *646:io_la_data_in[30] *646:io_la_oenb[30] 0.000619048
*RES
1 la_data_in[30] *646:io_la_data_in[30] 14.6994 
*END

*D_NET *196 0.00387329
*CONN
*P la_data_in[31] I
*I *646:io_la_data_in[31] I *D CaravelTopLevel
*CAP
1 la_data_in[31] 0.00122435
2 *646:io_la_data_in[31] 0.00122435
3 *646:io_la_data_in[31] la_data_out[31] 0.000973001
4 *646:io_la_data_in[31] *646:io_la_data_in[32] 0.000141851
5 *646:io_la_data_in[31] *646:io_la_oenb[30] 0.000206566
6 *646:io_la_data_in[30] *646:io_la_data_in[31] 0.000103162
*RES
1 la_data_in[31] *646:io_la_data_in[31] 14.8114 
*END

*D_NET *197 0.00359054
*CONN
*P la_data_in[32] I
*I *646:io_la_data_in[32] I *D CaravelTopLevel
*CAP
1 la_data_in[32] 0.00107782
2 *646:io_la_data_in[32] 0.00107782
3 *646:io_la_data_in[32] la_data_out[31] 0.0002494
4 *646:io_la_data_in[32] la_data_out[32] 0.000285225
5 *646:io_la_data_in[32] *646:io_la_oenb[31] 0.000375677
6 *646:io_la_data_in[32] *646:io_la_oenb[32] 0.000382753
7 *646:io_la_data_in[31] *646:io_la_data_in[32] 0.000141851
*RES
1 la_data_in[32] *646:io_la_data_in[32] 14.6948 
*END

*D_NET *198 0.0035241
*CONN
*P la_data_in[33] I
*I *646:io_la_data_in[33] I *D CaravelTopLevel
*CAP
1 la_data_in[33] 0.00116529
2 *646:io_la_data_in[33] 0.00116529
3 *646:io_la_data_in[33] la_data_out[32] 0.000342812
4 *646:io_la_data_in[33] la_data_out[33] 0.000763119
5 *646:io_la_data_in[33] *646:io_la_oenb[32] 8.75774e-05
*RES
1 la_data_in[33] *646:io_la_data_in[33] 14.52 
*END

*D_NET *199 0.00325782
*CONN
*P la_data_in[34] I
*I *646:io_la_data_in[34] I *D CaravelTopLevel
*CAP
1 la_data_in[34] 0.0010655
2 *646:io_la_data_in[34] 0.0010655
3 *646:io_la_data_in[34] la_data_out[33] 0.00030287
4 *646:io_la_data_in[34] la_data_out[34] 0.000698931
5 *646:io_la_data_in[34] *646:io_la_oenb[33] 0.00012503
*RES
1 la_data_in[34] *646:io_la_data_in[34] 14.4035 
*END

*D_NET *200 0.00310274
*CONN
*P la_data_in[35] I
*I *646:io_la_data_in[35] I *D CaravelTopLevel
*CAP
1 la_data_in[35] 0.000964321
2 *646:io_la_data_in[35] 0.000964321
3 *646:io_la_data_in[35] la_data_out[34] 0.000143103
4 *646:io_la_data_in[35] la_data_out[35] 0.000619048
5 *646:io_la_data_in[35] *646:io_la_data_in[36] 0
6 *646:io_la_data_in[35] *646:io_la_oenb[34] 0.00028208
7 *646:io_la_data_in[35] *646:io_la_oenb[35] 0.000129862
*RES
1 la_data_in[35] *646:io_la_data_in[35] 13.942 
*END

*D_NET *201 0.00302274
*CONN
*P la_data_in[36] I
*I *646:io_la_data_in[36] I *D CaravelTopLevel
*CAP
1 la_data_in[36] 0.00104488
2 *646:io_la_data_in[36] 0.00104488
3 *646:io_la_data_in[36] la_data_out[35] 0.000139542
4 *646:io_la_data_in[36] la_data_out[36] 0.000281409
5 *646:io_la_data_in[36] *646:io_la_oenb[35] 0.000512036
6 *646:io_la_data_in[35] *646:io_la_data_in[36] 0
*RES
1 la_data_in[36] *646:io_la_data_in[36] 14.1122 
*END

*D_NET *202 0.00267586
*CONN
*P la_data_in[37] I
*I *646:io_la_data_in[37] I *D CaravelTopLevel
*CAP
1 la_data_in[37] 0.00105699
2 *646:io_la_data_in[37] 0.00105699
3 *646:io_la_data_in[37] la_data_out[37] 0.000382753
4 *646:io_la_data_in[37] *646:io_la_oenb[36] 0.000179121
5 *646:io_la_data_in[37] *646:io_la_oenb[37] 0
*RES
1 la_data_in[37] *646:io_la_data_in[37] 13.9374 
*END

*D_NET *203 0.00238975
*CONN
*P la_data_in[38] I
*I *646:io_la_data_in[38] I *D CaravelTopLevel
*CAP
1 la_data_in[38] 0.000956723
2 *646:io_la_data_in[38] 0.000956723
3 *646:io_la_data_in[38] la_data_out[37] 0
4 *646:io_la_data_in[38] la_data_out[38] 0.00030287
5 *646:io_la_data_in[38] *646:io_la_oenb[37] 0.00017343
*RES
1 la_data_in[38] *646:io_la_data_in[38] 13.7626 
*END

*D_NET *204 0.00248254
*CONN
*P la_data_in[39] I
*I *646:io_la_data_in[39] I *D CaravelTopLevel
*CAP
1 la_data_in[39] 0.0010458
2 *646:io_la_data_in[39] 0.0010458
3 *646:io_la_data_in[39] la_data_out[39] 0.000167962
4 *646:io_la_data_in[39] *646:io_la_oenb[38] 0.000222987
*RES
1 la_data_in[39] *646:io_la_data_in[39] 13.646 
*END

*D_NET *205 0.0097097
*CONN
*P la_data_in[3] I
*I *646:io_la_data_in[3] I *D CaravelTopLevel
*CAP
1 la_data_in[3] 0.00156087
2 *646:io_la_data_in[3] 0.000120041
3 *205:9 0.00168091
4 *205:9 *646:io_la_oenb[0] 0.000278574
5 *205:9 *646:io_la_oenb[1] 0.00236157
6 *205:9 *333:13 0.00359791
7 *646:io_la_data_in[0] *205:9 0
8 *646:io_la_data_in[1] *205:9 0.000109836
*RES
1 la_data_in[3] *205:9 49.835 
2 *205:9 *646:io_la_data_in[3] 3.4925 
*END

*D_NET *206 0.0021857
*CONN
*P la_data_in[40] I
*I *646:io_la_data_in[40] I *D CaravelTopLevel
*CAP
1 la_data_in[40] 0.000981891
2 *646:io_la_data_in[40] 0.000981891
3 *646:io_la_data_in[40] la_data_out[40] 9.48304e-05
4 *646:io_la_data_in[40] *646:io_la_oenb[39] 0.000127084
*RES
1 la_data_in[40] *646:io_la_data_in[40] 13.4712 
*END

*D_NET *207 0.00192561
*CONN
*P la_data_in[41] I
*I *646:io_la_data_in[41] I *D CaravelTopLevel
*CAP
1 la_data_in[41] 0.000924788
2 *646:io_la_data_in[41] 0.000924788
3 *646:io_la_data_in[41] la_data_out[41] 5.21725e-05
4 *646:io_la_data_in[41] *646:io_la_oenb[40] 2.38557e-05
*RES
1 la_data_in[41] *646:io_la_data_in[41] 13.3547 
*END

*D_NET *208 0.00162645
*CONN
*P la_data_in[42] I
*I *646:io_la_data_in[42] I *D CaravelTopLevel
*CAP
1 la_data_in[42] 0.00079254
2 *646:io_la_data_in[42] 0.00079254
3 *646:io_la_data_in[42] *646:io_la_oenb[41] 4.13713e-05
*RES
1 la_data_in[42] *646:io_la_data_in[42] 14.8275 
*END

*D_NET *209 0.00154116
*CONN
*P la_data_in[43] I
*I *646:io_la_data_in[43] I *D CaravelTopLevel
*CAP
1 la_data_in[43] 0.00077058
2 *646:io_la_data_in[43] 0.00077058
3 *646:io_la_data_in[43] la_data_out[43] 0
*RES
1 la_data_in[43] *646:io_la_data_in[43] 14.0325 
*END

*D_NET *210 0.00141459
*CONN
*P la_data_in[44] I
*I *646:io_la_data_in[44] I *D CaravelTopLevel
*CAP
1 la_data_in[44] 0.000707293
2 *646:io_la_data_in[44] 0.000707293
3 *646:io_la_data_in[44] *646:io_la_oenb[43] 0
*RES
1 la_data_in[44] *646:io_la_data_in[44] 12.8925 
*END

*D_NET *211 0.00133956
*CONN
*P la_data_in[45] I
*I *646:io_la_data_in[45] I *D CaravelTopLevel
*CAP
1 la_data_in[45] 0.000669781
2 *646:io_la_data_in[45] 0.000669781
*RES
1 la_data_in[45] *646:io_la_data_in[45] 12.2025 
*END

*D_NET *212 0.00122703
*CONN
*P la_data_in[46] I
*I *646:io_la_data_in[46] I *D CaravelTopLevel
*CAP
1 la_data_in[46] 0.000613513
2 *646:io_la_data_in[46] 0.000613513
*RES
1 la_data_in[46] *646:io_la_data_in[46] 11.1675 
*END

*D_NET *213 0.00115325
*CONN
*P la_data_in[47] I
*I *646:io_la_data_in[47] I *D CaravelTopLevel
*CAP
1 la_data_in[47] 0.000576627
2 *646:io_la_data_in[47] 0.000576627
*RES
1 la_data_in[47] *646:io_la_data_in[47] 10.5825 
*END

*D_NET *214 0.00122703
*CONN
*P la_data_in[48] I
*I *646:io_la_data_in[48] I *D CaravelTopLevel
*CAP
1 la_data_in[48] 0.000613513
2 *646:io_la_data_in[48] 0.000613513
*RES
1 la_data_in[48] *646:io_la_data_in[48] 11.1675 
*END

*D_NET *215 0.00133956
*CONN
*P la_data_in[49] I
*I *646:io_la_data_in[49] I *D CaravelTopLevel
*CAP
1 la_data_in[49] 0.000669781
2 *646:io_la_data_in[49] 0.000669781
*RES
1 la_data_in[49] *646:io_la_data_in[49] 12.2025 
*END

*D_NET *216 0.0101902
*CONN
*P la_data_in[4] I
*I *646:io_la_data_in[4] I *D CaravelTopLevel
*CAP
1 la_data_in[4] 0.00151122
2 *646:io_la_data_in[4] 0.00151122
3 *646:io_la_data_in[4] la_data_out[5] 0.000391898
4 *646:io_la_data_in[4] *646:io_la_data_in[6] 0.00116049
5 *646:io_la_data_in[4] *646:io_la_data_in[7] 0
6 *646:io_la_data_in[4] *646:io_la_oenb[2] 0.00232983
7 *646:io_la_data_in[4] *646:io_la_oenb[4] 0.00315983
8 *646:io_la_data_in[4] *646:io_la_oenb[6] 0.000125669
*RES
1 la_data_in[4] *646:io_la_data_in[4] 18.8318 
*END

*D_NET *217 0.00141459
*CONN
*P la_data_in[50] I
*I *646:io_la_data_in[50] I *D CaravelTopLevel
*CAP
1 la_data_in[50] 0.000707293
2 *646:io_la_data_in[50] 0.000707293
3 *646:io_la_data_in[50] la_data_out[50] 0
*RES
1 la_data_in[50] *646:io_la_data_in[50] 12.8925 
*END

*D_NET *218 0.00154116
*CONN
*P la_data_in[51] I
*I *646:io_la_data_in[51] I *D CaravelTopLevel
*CAP
1 la_data_in[51] 0.00077058
2 *646:io_la_data_in[51] 0.00077058
3 *646:io_la_data_in[51] *646:io_la_oenb[50] 0
*RES
1 la_data_in[51] *646:io_la_data_in[51] 14.0325 
*END

*D_NET *219 0.0017022
*CONN
*P la_data_in[52] I
*I *646:io_la_data_in[52] I *D CaravelTopLevel
*CAP
1 la_data_in[52] 0.000849602
2 *646:io_la_data_in[52] 0.000849602
3 *646:io_la_data_in[52] la_data_out[52] 2.99518e-06
4 *646:io_la_data_in[52] *646:io_la_oenb[51] 0
*RES
1 la_data_in[52] *646:io_la_data_in[52] 13.1799 
*END

*D_NET *220 0.00192557
*CONN
*P la_data_in[53] I
*I *646:io_la_data_in[53] I *D CaravelTopLevel
*CAP
1 la_data_in[53] 0.000924772
2 *646:io_la_data_in[53] 0.000924772
3 *646:io_la_data_in[53] la_data_out[53] 2.38557e-05
4 *646:io_la_data_in[53] *646:io_la_oenb[52] 5.21698e-05
*RES
1 la_data_in[53] *646:io_la_data_in[53] 13.3547 
*END

*D_NET *221 0.00214961
*CONN
*P la_data_in[54] I
*I *646:io_la_data_in[54] I *D CaravelTopLevel
*CAP
1 la_data_in[54] 0.00098554
2 *646:io_la_data_in[54] 0.00098554
3 *646:io_la_data_in[54] la_data_out[54] 5.91159e-05
4 *646:io_la_data_in[54] *646:io_la_oenb[53] 0.000119417
*RES
1 la_data_in[54] *646:io_la_data_in[54] 13.4712 
*END

*D_NET *222 0.00240041
*CONN
*P la_data_in[55] I
*I *646:io_la_data_in[55] I *D CaravelTopLevel
*CAP
1 la_data_in[55] 0.000918699
2 *646:io_la_data_in[55] 0.000918699
3 *646:io_la_data_in[55] la_data_out[55] 0.000379975
4 *646:io_la_data_in[55] *646:io_la_oenb[54] 0.000183038
5 *646:io_la_data_in[55] *646:io_la_oenb[55] 0
*RES
1 la_data_in[55] *646:io_la_data_in[55] 13.646 
*END

*D_NET *223 0.00224786
*CONN
*P la_data_in[56] I
*I *646:io_la_data_in[56] I *D CaravelTopLevel
*CAP
1 la_data_in[56] 0.000970475
2 *646:io_la_data_in[56] 0.000970475
3 *646:io_la_data_in[56] la_data_out[56] 0.000130262
4 *646:io_la_data_in[56] *646:io_la_oenb[55] 0.000176649
*RES
1 la_data_in[56] *646:io_la_data_in[56] 13.7626 
*END

*D_NET *224 0.0027005
*CONN
*P la_data_in[57] I
*I *646:io_la_data_in[57] I *D CaravelTopLevel
*CAP
1 la_data_in[57] 0.00106338
2 *646:io_la_data_in[57] 0.00106338
3 *646:io_la_data_in[57] la_data_out[56] 2.38557e-05
4 *646:io_la_data_in[57] la_data_out[57] 0.000270676
5 *646:io_la_data_in[57] *646:io_la_oenb[56] 0.000279197
*RES
1 la_data_in[57] *646:io_la_data_in[57] 13.1354 
*END

*D_NET *225 0.00315688
*CONN
*P la_data_in[58] I
*I *646:io_la_data_in[58] I *D CaravelTopLevel
*CAP
1 la_data_in[58] 0.00103726
2 *646:io_la_data_in[58] 0.00103726
3 *646:io_la_data_in[58] la_data_out[57] 9.56855e-05
4 *646:io_la_data_in[58] la_data_out[58] 0.000297789
5 *646:io_la_data_in[58] *646:io_la_data_in[59] 0
6 *646:io_la_data_in[58] *646:io_la_oenb[57] 0.000465897
7 *646:io_la_data_in[58] *646:io_la_oenb[58] 0.000222979
*RES
1 la_data_in[58] *646:io_la_data_in[58] 14.1122 
*END

*D_NET *226 0.0030837
*CONN
*P la_data_in[59] I
*I *646:io_la_data_in[59] I *D CaravelTopLevel
*CAP
1 la_data_in[59] 0.00107179
2 *646:io_la_data_in[59] 0.00107179
3 *646:io_la_data_in[59] la_data_out[58] 0.000102594
4 *646:io_la_data_in[59] la_data_out[59] 0.000161737
5 *646:io_la_data_in[59] *646:io_la_oenb[58] 0.000593166
6 *646:io_la_data_in[59] *646:io_la_oenb[59] 8.26226e-05
7 *646:io_la_data_in[58] *646:io_la_data_in[59] 0
*RES
1 la_data_in[59] *646:io_la_data_in[59] 13.942 
*END

*D_NET *227 0.0101116
*CONN
*P la_data_in[5] I
*I *646:io_la_data_in[5] I *D CaravelTopLevel
*CAP
1 la_data_in[5] 0.0014502
2 *646:io_la_data_in[5] 0.0014502
3 *646:io_la_data_in[5] la_data_out[2] 0.000340034
4 *646:io_la_data_in[5] la_data_out[4] 0.000518097
5 *646:io_la_data_in[5] la_data_out[5] 0.00361621
6 *646:io_la_data_in[5] *646:io_la_data_in[7] 0.000315203
7 *646:io_la_data_in[5] *646:io_la_oenb[2] 0.000101523
8 *646:io_la_data_in[5] *646:io_la_oenb[3] 0.00222357
9 *646:io_la_data_in[5] *646:io_la_oenb[7] 9.65324e-05
*RES
1 la_data_in[5] *646:io_la_data_in[5] 18.4285 
*END

*D_NET *228 0.00293979
*CONN
*P la_data_in[60] I
*I *646:io_la_data_in[60] I *D CaravelTopLevel
*CAP
1 la_data_in[60] 0.00124238
2 *646:io_la_data_in[60] 0.00124238
3 *646:io_la_data_in[60] la_data_out[59] 0.000183038
4 *646:io_la_data_in[60] *646:io_la_oenb[59] 0.000271985
*RES
1 la_data_in[60] *646:io_la_data_in[60] 14.4035 
*END

*D_NET *229 0.00336045
*CONN
*P la_data_in[61] I
*I *646:io_la_data_in[61] I *D CaravelTopLevel
*CAP
1 la_data_in[61] 0.0012871
2 *646:io_la_data_in[61] 0.0012871
3 *646:io_la_data_in[61] la_data_out[60] 0
4 *646:io_la_data_in[61] la_data_out[61] 0.000786241
*RES
1 la_data_in[61] *646:io_la_data_in[61] 14.52 
*END

*D_NET *230 0.00345191
*CONN
*P la_data_in[62] I
*I *646:io_la_data_in[62] I *D CaravelTopLevel
*CAP
1 la_data_in[62] 0.00131726
2 *646:io_la_data_in[62] 0.00131726
3 *646:io_la_data_in[62] la_data_out[62] 0.000252453
4 *646:io_la_data_in[62] *646:io_la_oenb[62] 0.000564933
*RES
1 la_data_in[62] *646:io_la_data_in[62] 13.5863 
*END

*D_NET *231 0.00401362
*CONN
*P la_data_in[63] I
*I *646:io_la_data_in[63] I *D CaravelTopLevel
*CAP
1 la_data_in[63] 0.0012981
2 *646:io_la_data_in[63] 0.0012981
3 *646:io_la_data_in[63] la_data_out[62] 0.000617106
4 *646:io_la_data_in[63] la_data_out[64] 0
5 *646:io_la_data_in[63] *646:io_la_data_in[64] 0
6 *646:io_la_data_in[63] *646:io_la_oenb[62] 0.000166942
7 *646:io_la_data_in[63] *646:io_la_oenb[63] 0.000633379
*RES
1 la_data_in[63] *646:io_la_data_in[63] 14.1603 
*END

*D_NET *232 0.00406964
*CONN
*P la_data_in[64] I
*I *646:io_la_data_in[64] I *D CaravelTopLevel
*CAP
1 la_data_in[64] 0.00130006
2 *646:io_la_data_in[64] 0.00130006
3 *646:io_la_data_in[64] la_data_out[64] 0.00121747
4 *646:io_la_data_in[64] *646:io_la_oenb[62] 0
5 *646:io_la_data_in[64] *646:io_la_oenb[63] 0.000252042
6 *646:io_la_data_in[63] *646:io_la_data_in[64] 0
*RES
1 la_data_in[64] *646:io_la_data_in[64] 13.8776 
*END

*D_NET *233 0.00426994
*CONN
*P la_data_in[65] I
*I *646:io_la_data_in[65] I *D CaravelTopLevel
*CAP
1 la_data_in[65] 0.00135972
2 *646:io_la_data_in[65] 0.00135972
3 *646:io_la_data_in[65] la_data_out[65] 0.00024594
4 *646:io_la_data_in[65] *646:io_la_oenb[64] 0.00130456
*RES
1 la_data_in[65] *646:io_la_data_in[65] 14.9616 
*END

*D_NET *234 0.00432442
*CONN
*P la_data_in[66] I
*I *646:io_la_data_in[66] I *D CaravelTopLevel
*CAP
1 la_data_in[66] 0.001303
2 *646:io_la_data_in[66] 0.001303
3 *646:io_la_data_in[66] la_data_out[67] 4.20745e-05
4 *646:io_la_data_in[66] *646:io_la_oenb[64] 3.96112e-05
5 *646:io_la_data_in[66] *646:io_la_oenb[65] 0.00138439
6 *646:io_la_data_in[66] *646:io_la_oenb[66] 0.00025235
*RES
1 la_data_in[66] *646:io_la_data_in[66] 14.1689 
*END

*D_NET *235 0.0044114
*CONN
*P la_data_in[67] I
*I *646:io_la_data_in[67] I *D CaravelTopLevel
*CAP
1 la_data_in[67] 0.00154708
2 *646:io_la_data_in[67] 0.00154708
3 *646:io_la_data_in[67] la_data_out[66] 0.000598275
4 *646:io_la_data_in[67] *646:io_la_data_in[68] 0.000611302
5 *646:io_la_data_in[67] *646:io_la_oenb[66] 0.00010767
*RES
1 la_data_in[67] *646:io_la_data_in[67] 15.8212 
*END

*D_NET *236 0.00506571
*CONN
*P la_data_in[68] I
*I *646:io_la_data_in[68] I *D CaravelTopLevel
*CAP
1 la_data_in[68] 0.00143333
2 *646:io_la_data_in[68] 0.00143333
3 *646:io_la_data_in[68] la_data_out[67] 0.000115849
4 *646:io_la_data_in[68] la_data_out[68] 0.000252768
5 *646:io_la_data_in[68] *646:io_la_oenb[66] 7.58457e-05
6 *646:io_la_data_in[68] *646:io_la_oenb[68] 0.00114329
7 *646:io_la_data_in[67] *646:io_la_data_in[68] 0.000611302
*RES
1 la_data_in[68] *646:io_la_data_in[68] 15.4278 
*END

*D_NET *237 0.00616469
*CONN
*P la_data_in[69] I
*I *646:io_la_data_in[69] I *D CaravelTopLevel
*CAP
1 la_data_in[69] 0.00108363
2 *646:io_la_data_in[69] 0.00108363
3 *646:io_la_data_in[69] la_data_out[68] 0.00117003
4 *646:io_la_data_in[69] la_data_out[69] 0.00172817
5 *646:io_la_data_in[69] *646:io_la_data_in[70] 0.000809516
6 *646:io_la_data_in[69] *646:io_la_oenb[67] 0.000186845
7 *646:io_la_data_in[69] *646:io_la_oenb[68] 0.000102886
*RES
1 la_data_in[69] *646:io_la_data_in[69] 14.6351 
*END

*D_NET *238 0.00911711
*CONN
*P la_data_in[6] I
*I *646:io_la_data_in[6] I *D CaravelTopLevel
*CAP
1 la_data_in[6] 0.00152823
2 *646:io_la_data_in[6] 0.00152823
3 *646:io_la_data_in[6] la_data_out[5] 0.00301911
4 *646:io_la_data_in[6] la_data_out[6] 0.000777736
5 *646:io_la_data_in[6] la_data_out[8] 0
6 *646:io_la_data_in[6] *646:io_la_data_in[8] 0.000557034
7 *646:io_la_data_in[6] *646:io_la_oenb[4] 0.000546273
8 *646:io_la_data_in[4] *646:io_la_data_in[6] 0.00116049
*RES
1 la_data_in[6] *646:io_la_data_in[6] 18.5404 
*END

*D_NET *239 0.00597344
*CONN
*P la_data_in[70] I
*I *646:io_la_data_in[70] I *D CaravelTopLevel
*CAP
1 la_data_in[70] 0.00111756
2 *646:io_la_data_in[70] 0.00111756
3 *646:io_la_data_in[70] la_data_out[69] 0.000252768
4 *646:io_la_data_in[70] *646:io_la_data_in[71] 0.000750269
5 *646:io_la_data_in[70] *646:io_la_oenb[68] 0.000311675
6 *646:io_la_data_in[70] *646:io_la_oenb[69] 0.000337758
7 *646:io_la_data_in[70] *646:io_la_oenb[70] 0.00121055
8 *646:io_la_data_in[70] *646:io_la_oenb[71] 6.57849e-05
9 *646:io_la_data_in[69] *646:io_la_data_in[70] 0.000809516
*RES
1 la_data_in[70] *646:io_la_data_in[70] 15.6643 
*END

*D_NET *240 0.00621786
*CONN
*P la_data_in[71] I
*I *646:io_la_data_in[71] I *D CaravelTopLevel
*CAP
1 la_data_in[71] 0.00135538
2 *646:io_la_data_in[71] 0.00135538
3 *646:io_la_data_in[71] *646:io_la_data_in[72] 0.000986389
4 *646:io_la_data_in[71] *646:io_la_oenb[70] 0.000324728
5 *646:io_la_data_in[71] *646:io_la_oenb[71] 0.00144572
6 *646:io_la_data_in[70] *646:io_la_data_in[71] 0.000750269
*RES
1 la_data_in[71] *646:io_la_data_in[71] 14.9264 
*END

*D_NET *241 0.00616178
*CONN
*P la_data_in[72] I
*I *646:io_la_data_in[72] I *D CaravelTopLevel
*CAP
1 la_data_in[72] 0.00129008
2 *646:io_la_data_in[72] 0.00129008
3 *646:io_la_data_in[72] la_data_out[71] 0.000511895
4 *646:io_la_data_in[72] la_data_out[73] 0.00060409
5 *646:io_la_data_in[72] *646:io_la_data_in[73] 0.000419033
6 *646:io_la_data_in[72] *646:io_la_data_in[74] 0
7 *646:io_la_data_in[72] *646:io_la_oenb[70] 0.000427218
8 *646:io_la_data_in[72] *646:io_la_oenb[71] 0.000633004
9 *646:io_la_data_in[71] *646:io_la_data_in[72] 0.000986389
*RES
1 la_data_in[72] *646:io_la_data_in[72] 14.6426 
*END

*D_NET *242 0.00701415
*CONN
*P la_data_in[73] I
*I *646:io_la_data_in[73] I *D CaravelTopLevel
*CAP
1 la_data_in[73] 0.00114411
2 *646:io_la_data_in[73] 0.00114411
3 *646:io_la_data_in[73] la_data_out[71] 0.000157073
4 *646:io_la_data_in[73] la_data_out[72] 0.000410998
5 *646:io_la_data_in[73] la_data_out[73] 0.0020894
6 *646:io_la_data_in[73] *646:io_la_oenb[73] 0.00164943
7 *646:io_la_data_in[72] *646:io_la_data_in[73] 0.000419033
*RES
1 la_data_in[73] *646:io_la_data_in[73] 15.6752 
*END

*D_NET *243 0.00561577
*CONN
*P la_data_in[74] I
*I *646:io_la_data_in[74] I *D CaravelTopLevel
*CAP
1 la_data_in[74] 0.00169764
2 *646:io_la_data_in[74] 0.00169764
3 *646:io_la_data_in[74] la_data_out[72] 0
4 *646:io_la_data_in[74] la_data_out[73] 0.000505535
5 *646:io_la_data_in[74] *646:io_la_oenb[74] 0.00171496
6 *646:io_la_data_in[72] *646:io_la_data_in[74] 0
*RES
1 la_data_in[74] *646:io_la_data_in[74] 15.3343 
*END

*D_NET *244 0.00698131
*CONN
*P la_data_in[75] I
*I *646:io_la_data_in[75] I *D CaravelTopLevel
*CAP
1 la_data_in[75] 0.00113176
2 *646:io_la_data_in[75] 0.00113176
3 *646:io_la_data_in[75] la_data_out[73] 0.000311675
4 *646:io_la_data_in[75] la_data_out[74] 0.000795351
5 *646:io_la_data_in[75] la_data_out[76] 0.000735333
6 *646:io_la_data_in[75] *646:io_la_data_in[77] 0.000519424
7 *646:io_la_data_in[75] *646:io_la_oenb[73] 0.000812361
8 *646:io_la_data_in[75] *646:io_la_oenb[74] 0.00105604
9 *646:io_la_data_in[75] *646:io_la_oenb[75] 0.000100054
10 *646:io_la_data_in[75] *646:io_la_oenb[76] 0.000387558
*RES
1 la_data_in[75] *646:io_la_data_in[75] 17.1096 
*END

*D_NET *245 0.00632528
*CONN
*P la_data_in[76] I
*I *646:io_la_data_in[76] I *D CaravelTopLevel
*CAP
1 la_data_in[76] 0.00189118
2 *646:io_la_data_in[76] 0.00189118
3 *646:io_la_data_in[76] la_data_out[75] 0.00166134
4 *646:io_la_data_in[76] la_data_out[76] 0.000209646
5 *646:io_la_data_in[76] *646:io_la_data_in[78] 8.05889e-05
6 *646:io_la_data_in[76] *646:io_la_oenb[75] 0.000591328
*RES
1 la_data_in[76] *646:io_la_data_in[76] 17.7752 
*END

*D_NET *246 0.00501312
*CONN
*P la_data_in[77] I
*I *646:io_la_data_in[77] I *D CaravelTopLevel
*CAP
1 la_data_in[77] 0.00220574
2 *646:io_la_data_in[77] 0.00220574
3 *646:io_la_data_in[77] *646:io_la_data_in[79] 8.22168e-05
4 *646:io_la_data_in[77] *646:io_la_oenb[78] 0
5 *646:io_la_data_in[75] *646:io_la_data_in[77] 0.000519424
*RES
1 la_data_in[77] *646:io_la_data_in[77] 18.507 
*END

*D_NET *247 0.00612342
*CONN
*P la_data_in[78] I
*I *646:io_la_data_in[78] I *D CaravelTopLevel
*CAP
1 la_data_in[78] 0.00205165
2 *646:io_la_data_in[78] 0.00205165
3 *646:io_la_data_in[78] la_data_out[76] 0.0006164
4 *646:io_la_data_in[78] la_data_out[78] 0.00132313
5 *646:io_la_data_in[78] la_data_out[80] 0
6 *646:io_la_data_in[78] *646:io_la_data_in[80] 0
7 *646:io_la_data_in[76] *646:io_la_data_in[78] 8.05889e-05
*RES
1 la_data_in[78] *646:io_la_data_in[78] 17.4527 
*END

*D_NET *248 0.00607815
*CONN
*P la_data_in[79] I
*I *646:io_la_data_in[79] I *D CaravelTopLevel
*CAP
1 la_data_in[79] 0.00187367
2 *646:io_la_data_in[79] 0.00187367
3 *646:io_la_data_in[79] la_data_out[79] 0.00156353
4 *646:io_la_data_in[79] la_data_out[80] 0.000355852
5 *646:io_la_data_in[79] *646:io_la_data_in[81] 0.000329224
6 *646:io_la_data_in[79] *646:io_la_oenb[76] 0
7 *646:io_la_data_in[79] *646:io_la_oenb[78] 0
8 *646:io_la_data_in[77] *646:io_la_data_in[79] 8.22168e-05
*RES
1 la_data_in[79] *646:io_la_data_in[79] 17.2049 
*END

*D_NET *249 0.00979597
*CONN
*P la_data_in[7] I
*I *646:io_la_data_in[7] I *D CaravelTopLevel
*CAP
1 la_data_in[7] 0.00209396
2 *646:io_la_data_in[7] 0.00209396
3 *646:io_la_data_in[7] la_data_out[4] 0.000115839
4 *646:io_la_data_in[7] la_data_out[5] 5.68422e-05
5 *646:io_la_data_in[7] la_data_out[7] 0
6 *646:io_la_data_in[7] la_data_out[8] 0.00010204
7 *646:io_la_data_in[7] *646:io_la_data_in[8] 0.000812151
8 *646:io_la_data_in[7] *646:io_la_oenb[6] 0.0034471
9 *646:io_la_data_in[7] *646:io_la_oenb[7] 0.00035332
10 *646:io_la_data_in[7] *483:13 0.00040557
11 *646:io_la_data_in[4] *646:io_la_data_in[7] 0
12 *646:io_la_data_in[5] *646:io_la_data_in[7] 0.000315203
*RES
1 la_data_in[7] *646:io_la_data_in[7] 17.3153 
*END

*D_NET *250 0.00766687
*CONN
*P la_data_in[80] I
*I *646:io_la_data_in[80] I *D CaravelTopLevel
*CAP
1 la_data_in[80] 0.00205666
2 *646:io_la_data_in[80] 0.00205666
3 *646:io_la_data_in[80] la_data_out[78] 0.000406294
4 *646:io_la_data_in[80] la_data_out[82] 0.000417386
5 *646:io_la_data_in[80] *646:io_la_oenb[79] 0.00272987
6 *646:io_la_data_in[78] *646:io_la_data_in[80] 0
*RES
1 la_data_in[80] *646:io_la_data_in[80] 16.2665 
*END

*D_NET *251 0.00652951
*CONN
*P la_data_in[81] I
*I *646:io_la_data_in[81] I *D CaravelTopLevel
*CAP
1 la_data_in[81] 0.00157667
2 *646:io_la_data_in[81] 0.00157667
3 *646:io_la_data_in[81] la_data_out[79] 0.000157039
4 *646:io_la_data_in[81] la_data_out[80] 0.000742795
5 *646:io_la_data_in[81] la_data_out[82] 0.000579869
6 *646:io_la_data_in[81] *646:io_la_data_in[82] 0.0011353
7 *646:io_la_data_in[81] *646:io_la_data_in[83] 0.000330494
8 *646:io_la_data_in[81] *646:io_la_oenb[78] 0
9 *646:io_la_data_in[81] *646:io_la_oenb[80] 0
10 *646:io_la_data_in[81] *646:io_la_oenb[81] 0.000101442
11 *646:io_la_data_in[79] *646:io_la_data_in[81] 0.000329224
*RES
1 la_data_in[81] *646:io_la_data_in[81] 18.4568 
*END

*D_NET *252 0.00891845
*CONN
*P la_data_in[82] I
*I *646:io_la_data_in[82] I *D CaravelTopLevel
*CAP
1 la_data_in[82] 0.00159974
2 *646:io_la_data_in[82] 0.00159974
3 *646:io_la_data_in[82] *646:io_la_data_in[83] 0.00113397
4 *646:io_la_data_in[82] *646:io_la_oenb[79] 0.000464712
5 *646:io_la_data_in[82] *646:io_la_oenb[81] 0.00287184
6 *646:io_la_data_in[82] *646:io_la_oenb[83] 0.000113158
7 *646:io_la_data_in[82] *646:io_la_oenb[84] 0
8 *646:io_la_data_in[81] *646:io_la_data_in[82] 0.0011353
*RES
1 la_data_in[82] *646:io_la_data_in[82] 20.7428 
*END

*D_NET *253 0.0079846
*CONN
*P la_data_in[83] I
*I *646:io_la_data_in[83] I *D CaravelTopLevel
*CAP
1 la_data_in[83] 0.00163478
2 *646:io_la_data_in[83] 0.00163478
3 *646:io_la_data_in[83] la_data_out[82] 0.00246327
4 *646:io_la_data_in[83] la_data_out[83] 0
5 *646:io_la_data_in[83] la_data_out[84] 0
6 *646:io_la_data_in[83] *646:io_la_oenb[80] 0.000105446
7 *646:io_la_data_in[83] *646:io_la_oenb[84] 0.000681852
8 *646:io_la_data_in[83] *646:io_la_oenb[85] 0
9 *646:io_la_data_in[81] *646:io_la_data_in[83] 0.000330494
10 *646:io_la_data_in[82] *646:io_la_data_in[83] 0.00113397
*RES
1 la_data_in[83] *646:io_la_data_in[83] 17.783 
*END

*D_NET *254 0.0074849
*CONN
*P la_data_in[84] I
*I *646:io_la_data_in[84] I *D CaravelTopLevel
*CAP
1 la_data_in[84] 0.00257005
2 *646:io_la_data_in[84] 0.00257005
3 *646:io_la_data_in[84] la_data_out[83] 0.000526798
4 *646:io_la_data_in[84] la_data_out[85] 0
5 *646:io_la_data_in[84] la_data_out[86] 0
6 *646:io_la_data_in[84] *646:io_la_data_in[86] 0.000182327
7 *646:io_la_data_in[84] *646:io_la_oenb[82] 0.00163567
8 *646:io_la_data_in[84] *646:io_la_oenb[86] 0
*RES
1 la_data_in[84] *646:io_la_data_in[84] 16.7967 
*END

*D_NET *255 0.00986813
*CONN
*P la_data_in[85] I
*I *646:io_la_data_in[85] I *D CaravelTopLevel
*CAP
1 la_data_in[85] 0.00190602
2 *646:io_la_data_in[85] 0.00190602
3 *646:io_la_data_in[85] la_data_out[82] 0
4 *646:io_la_data_in[85] la_data_out[87] 0
5 *646:io_la_data_in[85] *646:io_la_oenb[82] 0.000364697
6 *646:io_la_data_in[85] *646:io_la_oenb[83] 0.000808053
7 *646:io_la_data_in[85] *646:io_la_oenb[84] 0.00327823
8 *646:io_la_data_in[85] *646:io_la_oenb[85] 0.00043387
9 *646:io_la_data_in[85] *646:io_la_oenb[86] 0.00113198
10 *646:io_la_data_in[85] *646:io_la_oenb[87] 3.92698e-05
*RES
1 la_data_in[85] *646:io_la_data_in[85] 19.9387 
*END

*D_NET *256 0.00764604
*CONN
*P la_data_in[86] I
*I *646:io_la_data_in[86] I *D CaravelTopLevel
*CAP
1 la_data_in[86] 0.00196557
2 *646:io_la_data_in[86] 0.00196557
3 *646:io_la_data_in[86] la_data_out[83] 0
4 *646:io_la_data_in[86] la_data_out[85] 0.000209385
5 *646:io_la_data_in[86] la_data_out[86] 0.0033232
6 *646:io_la_data_in[86] *646:io_la_oenb[88] 0
7 *646:io_la_data_in[84] *646:io_la_data_in[86] 0.000182327
*RES
1 la_data_in[86] *646:io_la_data_in[86] 18.2491 
*END

*D_NET *257 0.00994251
*CONN
*P la_data_in[87] I
*I *646:io_la_data_in[87] I *D CaravelTopLevel
*CAP
1 la_data_in[87] 0.00128408
2 *646:io_la_data_in[87] 0.00128408
3 *646:io_la_data_in[87] la_data_out[85] 0.00153434
4 *646:io_la_data_in[87] la_data_out[86] 0.00307588
5 *646:io_la_data_in[87] la_data_out[87] 0.000309193
6 *646:io_la_data_in[87] la_data_out[88] 0.00202034
7 *646:io_la_data_in[87] *646:io_la_data_in[89] 0.000364427
8 *646:io_la_data_in[87] *646:io_la_oenb[86] 0
9 *646:io_la_data_in[87] *646:io_la_oenb[89] 7.01681e-05
*RES
1 la_data_in[87] *646:io_la_data_in[87] 17.622 
*END

*D_NET *258 0.0080765
*CONN
*P la_data_in[88] I
*I *646:io_la_data_in[88] I *D CaravelTopLevel
*CAP
1 la_data_in[88] 0.00223809
2 *646:io_la_data_in[88] 0.00223809
3 *646:io_la_data_in[88] la_data_out[85] 5.16945e-05
4 *646:io_la_data_in[88] la_data_out[87] 0.00297835
5 *646:io_la_data_in[88] la_data_out[88] 0.000570269
6 *646:io_la_data_in[88] *646:io_la_oenb[90] 0
*RES
1 la_data_in[88] *646:io_la_data_in[88] 18.5404 
*END

*D_NET *259 0.010225
*CONN
*P la_data_in[89] I
*I *646:io_la_data_in[89] I *D CaravelTopLevel
*CAP
1 la_data_in[89] 0.00151253
2 *646:io_la_data_in[89] 0.00151253
3 *646:io_la_data_in[89] la_data_out[86] 8.26226e-05
4 *646:io_la_data_in[89] la_data_out[89] 0.003606
5 *646:io_la_data_in[89] *646:io_la_oenb[89] 0.00314686
6 *646:io_la_data_in[87] *646:io_la_data_in[89] 0.000364427
*RES
1 la_data_in[89] *646:io_la_data_in[89] 18.1418 
*END

*D_NET *260 0.00803756
*CONN
*P la_data_in[8] I
*I *646:io_la_data_in[8] I *D CaravelTopLevel
*CAP
1 la_data_in[8] 0.00211957
2 *646:io_la_data_in[8] 0.00211957
3 *646:io_la_data_in[8] la_data_out[5] 9.27721e-05
4 *646:io_la_data_in[8] la_data_out[6] 9.04937e-05
5 *646:io_la_data_in[8] la_data_out[7] 0
6 *646:io_la_data_in[8] la_data_out[9] 0.00178838
7 *646:io_la_data_in[8] *646:io_la_data_in[9] 0.000278181
8 *646:io_la_data_in[8] *646:io_la_oenb[7] 0.00017941
9 *646:io_la_data_in[6] *646:io_la_data_in[8] 0.000557034
10 *646:io_la_data_in[7] *646:io_la_data_in[8] 0.000812151
*RES
1 la_data_in[8] *646:io_la_data_in[8] 20.0624 
*END

*D_NET *261 0.0101266
*CONN
*P la_data_in[90] I
*I *646:io_la_data_in[90] I *D CaravelTopLevel
*CAP
1 la_data_in[90] 0.00153868
2 *646:io_la_data_in[90] 0.00153868
3 *646:io_la_data_in[90] la_data_out[88] 0.000947986
4 *646:io_la_data_in[90] la_data_out[91] 0.00228843
5 *646:io_la_data_in[90] la_data_out[92] 0.00015738
6 *646:io_la_data_in[90] *646:io_la_oenb[89] 0.00365548
7 *646:io_la_data_in[90] *646:io_la_oenb[92] 0
8 *646:io_la_data_in[90] *389:13 0
*RES
1 la_data_in[90] *646:io_la_data_in[90] 18.8318 
*END

*D_NET *262 0.00871784
*CONN
*P la_data_in[91] I
*I *646:io_la_data_in[91] I *D CaravelTopLevel
*CAP
1 la_data_in[91] 0.00224965
2 *646:io_la_data_in[91] 0.00224965
3 *646:io_la_data_in[91] la_data_out[89] 0.00078706
4 *646:io_la_data_in[91] la_data_out[92] 0.00135809
5 *646:io_la_data_in[91] *646:io_la_data_in[92] 0.000513488
6 *646:io_la_data_in[91] *646:io_la_data_in[93] 0.00155991
*RES
1 la_data_in[91] *646:io_la_data_in[91] 17.8455 
*END

*D_NET *263 0.00862367
*CONN
*P la_data_in[92] I
*I *646:io_la_data_in[92] I *D CaravelTopLevel
*CAP
1 la_data_in[92] 0.00234588
2 *646:io_la_data_in[92] 0.00234588
3 *646:io_la_data_in[92] *646:io_la_data_in[93] 0.00150128
4 *646:io_la_data_in[92] *646:io_la_data_in[94] 0.00164398
5 *646:io_la_data_in[92] *646:io_la_data_in[95] 0.000273161
6 *646:io_la_data_in[92] *394:9 0
7 *646:io_la_data_in[91] *646:io_la_data_in[92] 0.000513488
*RES
1 la_data_in[92] *646:io_la_data_in[92] 19.492 
*END

*D_NET *264 0.0102972
*CONN
*P la_data_in[93] I
*I *646:io_la_data_in[93] I *D CaravelTopLevel
*CAP
1 la_data_in[93] 0.00186027
2 *646:io_la_data_in[93] 0.00186027
3 *646:io_la_data_in[93] la_data_out[92] 8.604e-05
4 *646:io_la_data_in[93] la_data_out[93] 0
5 *646:io_la_data_in[93] la_data_out[94] 0.00176845
6 *646:io_la_data_in[93] la_data_out[96] 2.14825e-05
7 *646:io_la_data_in[93] *646:io_la_data_in[95] 0.00163951
8 *646:io_la_data_in[93] *646:io_la_data_in[96] 0
9 *646:io_la_data_in[91] *646:io_la_data_in[93] 0.00155991
10 *646:io_la_data_in[92] *646:io_la_data_in[93] 0.00150128
*RES
1 la_data_in[93] *646:io_la_data_in[93] 19.612 
*END

*D_NET *265 0.0106666
*CONN
*P la_data_in[94] I
*I *646:io_la_data_in[94] I *D CaravelTopLevel
*CAP
1 la_data_in[94] 0.00191839
2 *646:io_la_data_in[94] 0.00191839
3 *646:io_la_data_in[94] la_data_out[97] 0.000222802
4 *646:io_la_data_in[94] *646:io_la_data_in[95] 0.00149164
5 *646:io_la_data_in[94] *646:io_la_oenb[94] 0.00347141
6 *646:io_la_data_in[92] *646:io_la_data_in[94] 0.00164398
*RES
1 la_data_in[94] *646:io_la_data_in[94] 22.042 
*END

*D_NET *266 0.0107041
*CONN
*P la_data_in[95] I
*I *646:io_la_data_in[95] I *D CaravelTopLevel
*CAP
1 la_data_in[95] 0.00207694
2 *646:io_la_data_in[95] 0.00207694
3 *646:io_la_data_in[95] la_data_out[94] 5.86554e-05
4 *646:io_la_data_in[95] la_data_out[96] 0.000151817
5 *646:io_la_data_in[95] *646:io_la_oenb[94] 0.000488865
6 *646:io_la_data_in[95] *646:io_la_oenb[96] 0.00244654
7 *646:io_la_data_in[95] *646:io_la_oenb[98] 0
8 *646:io_la_data_in[92] *646:io_la_data_in[95] 0.000273161
9 *646:io_la_data_in[93] *646:io_la_data_in[95] 0.00163951
10 *646:io_la_data_in[94] *646:io_la_data_in[95] 0.00149164
*RES
1 la_data_in[95] *646:io_la_data_in[95] 19.9564 
*END

*D_NET *267 0.0109681
*CONN
*P la_data_in[96] I
*I *646:io_la_data_in[96] I *D CaravelTopLevel
*CAP
1 la_data_in[96] 0.00302834
2 *646:io_la_data_in[96] 0.00302834
3 *646:io_la_data_in[96] la_data_out[95] 0.00159158
4 *646:io_la_data_in[96] la_data_out[97] 0.00279149
5 *646:io_la_data_in[96] *268:13 0.00012268
6 *646:io_la_data_in[96] *525:17 0.00040565
7 *646:io_la_data_in[93] *646:io_la_data_in[96] 0
*RES
1 la_data_in[96] *646:io_la_data_in[96] 21.8727 
*END

*D_NET *268 0.0114438
*CONN
*P la_data_in[97] I
*I *646:io_la_data_in[97] I *D CaravelTopLevel
*CAP
1 la_data_in[97] 0.00151481
2 *646:io_la_data_in[97] 0.000536086
3 *268:13 0.0020509
4 *646:io_la_data_in[97] *520:11 0.00016704
5 *268:13 la_data_out[95] 0.00046173
6 *268:13 la_data_out[97] 0.00100623
7 *268:13 *522:17 0.00167532
8 *268:13 *524:13 0.00390899
9 *646:io_la_data_in[96] *268:13 0.00012268
*RES
1 la_data_in[97] *268:13 49.4 
2 *268:13 *646:io_la_data_in[97] 11.9825 
*END

*D_NET *269 0.00976654
*CONN
*P la_data_in[98] I
*I *646:io_la_data_in[98] I *D CaravelTopLevel
*CAP
1 la_data_in[98] 0.00195262
2 *646:io_la_data_in[98] 0.00195262
3 *646:io_la_data_in[98] la_data_out[97] 0.000511843
4 *646:io_la_data_in[98] *646:io_la_data_in[99] 0.003645
5 *646:io_la_data_in[98] *646:io_la_oenb[94] 0.000453072
6 *646:io_la_data_in[98] *646:io_la_oenb[97] 0
7 *646:io_la_data_in[100] *646:io_la_data_in[98] 0.0012514
*RES
1 la_data_in[98] *646:io_la_data_in[98] 19.2534 
*END

*D_NET *270 0.0123107
*CONN
*P la_data_in[99] I
*I *646:io_la_data_in[99] I *D CaravelTopLevel
*CAP
1 la_data_in[99] 0.00158869
2 *646:io_la_data_in[99] 0.00158869
3 *646:io_la_data_in[99] la_data_out[97] 0.000209385
4 *646:io_la_data_in[99] la_data_out[99] 0.00464402
5 *646:io_la_data_in[99] *646:io_la_oenb[102] 2.83472e-05
6 *646:io_la_data_in[100] *646:io_la_data_in[99] 0.000606552
7 *646:io_la_data_in[98] *646:io_la_data_in[99] 0.003645
*RES
1 la_data_in[99] *646:io_la_data_in[99] 19.8852 
*END

*D_NET *271 0.00766529
*CONN
*P la_data_in[9] I
*I *646:io_la_data_in[9] I *D CaravelTopLevel
*CAP
1 la_data_in[9] 0.00185705
2 *646:io_la_data_in[9] 0.00185705
3 *646:io_la_data_in[9] la_data_out[10] 0
4 *646:io_la_data_in[9] la_data_out[6] 5.42975e-05
5 *646:io_la_data_in[9] la_data_out[7] 0.000425689
6 *646:io_la_data_in[9] la_data_out[9] 0.00319303
7 *646:io_la_data_in[9] *646:io_la_oenb[9] 0
8 *646:io_la_data_in[11] *646:io_la_data_in[9] 0
9 *646:io_la_data_in[8] *646:io_la_data_in[9] 0.000278181
*RES
1 la_data_in[9] *646:io_la_data_in[9] 18.0743 
*END

*D_NET *272 0.00802282
*CONN
*P la_data_out[0] O
*I *646:io_la_data_out[0] O *D CaravelTopLevel
*CAP
1 la_data_out[0] 0.00290885
2 *646:io_la_data_out[0] 0.00290885
3 la_data_out[0] la_data_out[2] 0.000278181
4 la_data_out[0] la_data_out[3] 0.00032168
5 la_data_out[0] wbs_dat_o[29] 0.000320399
6 la_data_out[0] *646:io_la_oenb[2] 0.00106591
7 la_data_out[0] *646:io_wbs_adr_i[30] 0
8 *646:io_la_data_in[0] la_data_out[0] 0
9 *646:io_la_data_in[2] la_data_out[0] 0.00021896
*RES
1 *646:io_la_data_out[0] la_data_out[0] 19.1277 
*END

*D_NET *273 0.00752413
*CONN
*P la_data_out[100] O
*I *646:io_la_data_out[100] O *D CaravelTopLevel
*CAP
1 la_data_out[100] 0.000490629
2 *646:io_la_data_out[100] 0.000380963
3 *273:13 0.00319275
4 *273:9 0.00308309
5 *273:9 *646:io_la_oenb[96] 0
6 *646:io_la_data_in[100] la_data_out[100] 0
7 *646:io_la_data_in[100] *273:13 0.000289483
8 *646:io_la_data_in[104] la_data_out[100] 8.72106e-05
*RES
1 *646:io_la_data_out[100] *273:9 8.8325 
2 *273:9 *273:13 47.3 
3 *273:13 la_data_out[100] 6.645 
*END

*D_NET *274 0.0144812
*CONN
*P la_data_out[101] O
*I *646:io_la_data_out[101] O *D CaravelTopLevel
*CAP
1 la_data_out[101] 0.00203707
2 *646:io_la_data_out[101] 0.00203707
3 la_data_out[101] *646:io_la_oenb[101] 0.00472058
4 la_data_out[101] *646:io_la_oenb[103] 0.00013827
5 la_data_out[101] *403:11 0.000319625
6 la_data_out[101] *526:13 0.000218017
7 *646:io_la_data_in[101] la_data_out[101] 0.00490202
8 *646:io_la_data_in[104] la_data_out[101] 0.000108575
*RES
1 *646:io_la_data_out[101] la_data_out[101] 22.1784 
*END

*D_NET *275 0.0139507
*CONN
*P la_data_out[102] O
*I *646:io_la_data_out[102] O *D CaravelTopLevel
*CAP
1 la_data_out[102] 0.000111079
2 *646:io_la_data_out[102] 0.000686389
3 *275:11 0.00117943
4 *275:9 0.00175474
5 *275:9 *525:13 2.83472e-05
6 *275:11 *646:io_la_oenb[101] 0.00129828
7 *275:11 *277:11 0.00264059
8 *275:11 *401:11 0
9 *275:11 *403:11 0.00489056
10 *275:11 *526:13 0.00123571
11 *646:io_la_data_in[105] *275:11 0.000125561
*RES
1 *646:io_la_data_out[102] *275:9 13.8575 
2 *275:9 *275:11 48.75 
3 *275:11 la_data_out[102] 2.975 
*END

*D_NET *276 0.0129874
*CONN
*P la_data_out[103] O
*I *646:io_la_data_out[103] O *D CaravelTopLevel
*CAP
1 la_data_out[103] 0.00214418
2 *646:io_la_data_out[103] 0.00214418
3 la_data_out[103] la_data_out[105] 0.00285853
4 la_data_out[103] *646:io_la_oenb[103] 0
5 la_data_out[103] *280:9 6.32359e-05
6 *646:io_la_data_in[100] la_data_out[103] 0.000499216
7 *646:io_la_data_in[103] la_data_out[103] 0.00497638
8 *646:io_la_data_in[104] la_data_out[103] 0.000301688
*RES
1 *646:io_la_data_out[103] la_data_out[103] 20.8128 
*END

*D_NET *277 0.0114232
*CONN
*P la_data_out[104] O
*I *646:io_la_data_out[104] O *D CaravelTopLevel
*CAP
1 la_data_out[104] 0.000166158
2 *646:io_la_data_out[104] 0.000708691
3 *277:11 0.00213128
4 *277:9 0.00267381
5 *277:9 *401:11 4.41134e-05
6 *277:11 la_data_out[106] 0.000109008
7 *277:11 *646:io_la_oenb[101] 0.00072379
8 *277:11 *646:io_la_oenb[106] 0.0009126
9 *277:11 *280:11 0.00029938
10 *277:11 *403:11 0.000275995
11 *277:11 *404:11 0
12 *277:11 *408:11 0.000737761
13 *275:11 *277:11 0.00264059
*RES
1 *646:io_la_data_out[104] *277:9 14.1125 
2 *277:9 *277:11 48.405 
3 *277:11 la_data_out[104] 3.665 
*END

*D_NET *278 0.0131902
*CONN
*P la_data_out[105] O
*I *646:io_la_data_out[105] O *D CaravelTopLevel
*CAP
1 la_data_out[105] 0.00318835
2 *646:io_la_data_out[105] 0.00318835
3 la_data_out[105] la_data_out[108] 0
4 la_data_out[105] la_data_out[109] 0
5 la_data_out[105] *646:io_la_oenb[104] 0.000202629
6 la_data_out[105] *405:15 0.000355464
7 la_data_out[105] *406:13 0.00145014
8 la_data_out[105] *409:13 0.000201386
9 la_data_out[103] la_data_out[105] 0.00285853
10 *646:io_la_data_in[104] la_data_out[105] 0.000437921
11 *646:io_la_data_in[105] la_data_out[105] 0.000477001
12 *646:io_la_data_in[106] la_data_out[105] 0.000105843
13 *646:io_la_data_in[108] la_data_out[105] 0
14 *152:13 la_data_out[105] 0.000616251
15 *154:11 la_data_out[105] 0.000108382
*RES
1 *646:io_la_data_out[105] la_data_out[105] 20.3022 
*END

*D_NET *279 0.0157368
*CONN
*P la_data_out[106] O
*I *646:io_la_data_out[106] O *D CaravelTopLevel
*CAP
1 la_data_out[106] 0.00207467
2 *646:io_la_data_out[106] 0.00207467
3 la_data_out[106] *646:io_la_oenb[106] 0.00549797
4 la_data_out[106] *280:11 0.000851996
5 *646:io_la_data_in[106] la_data_out[106] 0.00512843
6 *277:11 la_data_out[106] 0.000109008
*RES
1 *646:io_la_data_out[106] la_data_out[106] 22.5955 
*END

*D_NET *280 0.0121044
*CONN
*P la_data_out[107] O
*I *646:io_la_data_out[107] O *D CaravelTopLevel
*CAP
1 la_data_out[107] 0.000109418
2 *646:io_la_data_out[107] 0.00066109
3 *280:11 0.00200179
4 *280:9 0.00255346
5 *280:11 *404:11 5.09218e-05
6 *280:11 *408:11 0.00535161
7 la_data_out[103] *280:9 6.32359e-05
8 la_data_out[106] *280:11 0.000851996
9 *646:io_la_data_in[111] *280:11 0.000161545
10 *277:11 *280:11 0.00029938
*RES
1 *646:io_la_data_out[107] *280:9 13.6025 
2 *280:9 *280:11 52.89 
3 *280:11 la_data_out[107] 2.975 
*END

*D_NET *281 0.0142568
*CONN
*P la_data_out[108] O
*I *646:io_la_data_out[108] O *D CaravelTopLevel
*CAP
1 la_data_out[108] 0.00194596
2 *646:io_la_data_out[108] 0.00194596
3 la_data_out[108] la_data_out[109] 0.00461716
4 la_data_out[108] la_data_out[112] 9.80201e-05
5 la_data_out[108] *646:io_la_oenb[108] 0
6 la_data_out[108] *646:io_la_oenb[112] 0.000120613
7 la_data_out[105] la_data_out[108] 0
8 *646:io_la_data_in[108] la_data_out[108] 0.00552911
*RES
1 *646:io_la_data_out[108] la_data_out[108] 21.5703 
*END

*D_NET *282 0.0110851
*CONN
*P la_data_out[109] O
*I *646:io_la_data_out[109] O *D CaravelTopLevel
*CAP
1 la_data_out[109] 0.00318929
2 *646:io_la_data_out[109] 0.00318929
3 la_data_out[109] la_data_out[112] 0
4 la_data_out[109] *646:io_la_oenb[113] 8.93419e-05
5 la_data_out[105] la_data_out[109] 0
6 la_data_out[108] la_data_out[109] 0.00461716
*RES
1 *646:io_la_data_out[109] la_data_out[109] 21.6868 
*END

*D_NET *283 0.00753163
*CONN
*P la_data_out[10] O
*I *646:io_la_data_out[10] O *D CaravelTopLevel
*CAP
1 la_data_out[10] 0.00162716
2 *646:io_la_data_out[10] 0.00162716
3 la_data_out[10] la_data_out[12] 0.00054252
4 la_data_out[10] *646:io_la_oenb[9] 0.00108142
5 *646:io_la_data_in[11] la_data_out[10] 0.00253137
6 *646:io_la_data_in[12] la_data_out[10] 0.000121993
7 *646:io_la_data_in[9] la_data_out[10] 0
*RES
1 *646:io_la_data_out[10] la_data_out[10] 17.8995 
*END

*D_NET *284 0.0119898
*CONN
*P la_data_out[110] O
*I *646:io_la_data_out[110] O *D CaravelTopLevel
*CAP
1 la_data_out[110] 0.0033328
2 *646:io_la_data_out[110] 0.0033328
3 la_data_out[110] la_data_out[111] 0.00479802
4 la_data_out[110] *646:io_la_oenb[114] 0
5 *646:io_la_data_in[110] la_data_out[110] 0.000526213
*RES
1 *646:io_la_data_out[110] la_data_out[110] 22.2306 
*END

*D_NET *285 0.0154953
*CONN
*P la_data_out[111] O
*I *646:io_la_data_out[111] O *D CaravelTopLevel
*CAP
1 la_data_out[111] 0.00209827
2 *646:io_la_data_out[111] 0.00209827
3 la_data_out[111] *646:io_la_oenb[115] 0
4 la_data_out[110] la_data_out[111] 0.00479802
5 *646:io_la_data_in[110] la_data_out[111] 0.00122335
6 *646:io_la_data_in[113] la_data_out[111] 0.00400819
7 *646:io_la_data_in[115] la_data_out[111] 0.00126917
8 *646:io_la_data_in[116] la_data_out[111] 0
*RES
1 *646:io_la_data_out[111] la_data_out[111] 21.8954 
*END

*D_NET *286 0.0120905
*CONN
*P la_data_out[112] O
*I *646:io_la_data_out[112] O *D CaravelTopLevel
*CAP
1 la_data_out[112] 0.00270126
2 *646:io_la_data_out[112] 0.00270126
3 la_data_out[112] *646:io_la_oenb[114] 0.00314442
4 la_data_out[112] *646:io_la_oenb[116] 0
5 la_data_out[108] la_data_out[112] 9.80201e-05
6 la_data_out[109] la_data_out[112] 0
7 *646:io_la_data_in[108] la_data_out[112] 1.47615e-06
8 *646:io_la_data_in[110] la_data_out[112] 0.00159128
9 *646:io_la_data_in[113] la_data_out[112] 0.000100792
10 *646:io_la_data_in[114] la_data_out[112] 0.00169978
11 *646:io_la_data_in[117] la_data_out[112] 5.21698e-05
*RES
1 *646:io_la_data_out[112] la_data_out[112] 21.0444 
*END

*D_NET *287 0.0118016
*CONN
*P la_data_out[113] O
*I *646:io_la_data_out[113] O *D CaravelTopLevel
*CAP
1 la_data_out[113] 0.000295491
2 *646:io_la_data_out[113] 0.000452138
3 *287:11 0.00241995
4 *287:9 0.00257659
5 la_data_out[113] *415:9 0
6 *287:9 *646:io_la_oenb[113] 0
7 *287:11 *414:13 0.000128187
8 *287:11 *415:11 0.00592925
*RES
1 *646:io_la_data_out[113] *287:9 9.8675 
2 *287:9 *287:11 56.685 
3 *287:11 la_data_out[113] 6.65 
*END

*D_NET *288 0.0158542
*CONN
*P la_data_out[114] O
*I *646:io_la_data_out[114] O *D CaravelTopLevel
*CAP
1 la_data_out[114] 0.000199983
2 *646:io_la_data_out[114] 0.000341014
3 *288:11 0.00117912
4 *288:9 0.00132015
5 *288:11 *289:11 8.37704e-05
6 *288:11 *291:11 0.00232395
7 *288:11 *414:13 0.00391758
8 *288:11 *415:11 0.00524234
9 *288:11 *420:11 0.000620285
10 *646:io_la_data_in[110] *288:9 0.000626024
*RES
1 *646:io_la_data_out[114] *288:9 10.3775 
2 *288:9 *288:11 58.065 
3 *288:11 la_data_out[114] 5.24 
*END

*D_NET *289 0.0150417
*CONN
*P la_data_out[115] O
*I *646:io_la_data_out[115] O *D CaravelTopLevel
*CAP
1 la_data_out[115] 0.00032806
2 *646:io_la_data_out[115] 0.000473061
3 *289:11 0.00155442
4 *289:9 0.00169942
5 *289:11 *291:11 0.00361393
6 *289:11 *413:11 0.00103353
7 *289:11 *414:13 0.00270341
8 *289:11 *419:13 0.00311944
9 *646:io_la_data_in[115] la_data_out[115] 0
10 *158:9 *289:11 0.000432668
11 *288:11 *289:11 8.37704e-05
*RES
1 *646:io_la_data_out[115] *289:9 9.8525 
2 *289:9 *289:11 58.755 
3 *289:11 la_data_out[115] 6.56 
*END

*D_NET *290 0.0157328
*CONN
*P la_data_out[116] O
*I *646:io_la_data_out[116] O *D CaravelTopLevel
*CAP
1 la_data_out[116] 0.00230491
2 *646:io_la_data_out[116] 0.00230491
3 *646:io_la_data_in[116] la_data_out[116] 0.00627769
4 *646:io_la_data_in[118] la_data_out[116] 0.00445029
5 *646:io_la_data_in[120] la_data_out[116] 0.000172052
6 *646:io_la_data_in[121] la_data_out[116] 0.000222979
*RES
1 *646:io_la_data_out[116] la_data_out[116] 22.7356 
*END

*D_NET *291 0.0148968
*CONN
*P la_data_out[117] O
*I *646:io_la_data_out[117] O *D CaravelTopLevel
*CAP
1 la_data_out[117] 0.000264242
2 *646:io_la_data_out[117] 0.000504533
3 *291:11 0.00125583
4 *291:9 0.00149613
5 *291:11 *295:11 0.00264528
6 *291:11 *419:13 0.00180386
7 *291:11 *420:11 0.000988997
8 *646:io_la_data_in[113] *291:9 0
9 *646:io_la_data_in[117] la_data_out[117] 0
10 *288:11 *291:11 0.00232395
11 *289:11 *291:11 0.00361393
*RES
1 *646:io_la_data_out[117] *291:9 10.2875 
2 *291:9 *291:11 60.135 
3 *291:11 la_data_out[117] 6.23 
*END

*D_NET *292 0.0122264
*CONN
*P la_data_out[118] O
*I *646:io_la_data_out[118] O *D CaravelTopLevel
*CAP
1 la_data_out[118] 0.000134477
2 *646:io_la_data_out[118] 0.000577989
3 *292:11 0.00241794
4 *292:9 0.00286145
5 *292:9 *646:io_la_oenb[118] 0
6 *292:11 *295:11 0.000331165
7 *292:11 *419:13 0.0057956
8 *292:11 *425:9 0.000107773
*RES
1 *646:io_la_data_out[118] *292:9 11.3975 
2 *292:9 *292:11 61.515 
3 *292:11 la_data_out[118] 4.22 
*END

*D_NET *293 0.0136006
*CONN
*P la_data_out[119] O
*I *646:io_la_data_out[119] O *D CaravelTopLevel
*CAP
1 la_data_out[119] 0.00316113
2 *646:io_la_data_out[119] 0.00316113
3 la_data_out[119] la_data_out[121] 0.000299094
4 la_data_out[119] la_data_out[123] 0.0014692
5 la_data_out[119] *646:io_la_oenb[114] 0.000351097
6 *646:io_la_data_in[118] la_data_out[119] 0.00515893
*RES
1 *646:io_la_data_out[119] la_data_out[119] 23.2018 
*END

*D_NET *294 0.007588
*CONN
*P la_data_out[11] O
*I *646:io_la_data_out[11] O *D CaravelTopLevel
*CAP
1 la_data_out[11] 0.0014557
2 *646:io_la_data_out[11] 0.0014557
3 la_data_out[11] la_data_out[13] 0
4 la_data_out[11] *646:io_la_oenb[10] 0.00135312
5 la_data_out[11] *646:io_la_oenb[11] 0.000346398
6 la_data_out[11] *646:io_la_oenb[13] 0.000118127
7 la_data_out[11] *646:io_la_oenb[9] 0.000427591
8 *646:io_la_data_in[12] la_data_out[11] 0.00243138
*RES
1 *646:io_la_data_out[11] la_data_out[11] 19.6551 
*END

*D_NET *295 0.0140078
*CONN
*P la_data_out[120] O
*I *646:io_la_data_out[120] O *D CaravelTopLevel
*CAP
1 la_data_out[120] 0.000186251
2 *646:io_la_data_out[120] 0.000460561
3 *295:11 0.00190028
4 *295:9 0.00217459
5 la_data_out[120] *646:io_la_oenb[125] 0
6 la_data_out[120] *300:9 0
7 *295:11 *419:13 0.000231932
8 *295:11 *420:11 0.00450193
9 *295:11 *423:13 0.00157577
10 *295:11 *425:9 0
11 *646:io_la_data_in[120] *295:9 0
12 *291:11 *295:11 0.00264528
13 *292:11 *295:11 0.000331165
*RES
1 *646:io_la_data_out[120] *295:9 9.3425 
2 *295:9 *295:11 64.965 
3 *295:11 la_data_out[120] 5.24 
*END

*D_NET *296 0.0179458
*CONN
*P la_data_out[121] O
*I *646:io_la_data_out[121] O *D CaravelTopLevel
*CAP
1 la_data_out[121] 0.00194223
2 *646:io_la_data_out[121] 0.00194223
3 la_data_out[121] la_data_out[123] 0.00446089
4 la_data_out[121] la_data_out[124] 0.00021896
5 la_data_out[121] la_data_out[126] 0
6 la_data_out[121] *646:io_la_oenb[121] 0
7 la_data_out[119] la_data_out[121] 0.000299094
8 *646:io_la_data_in[118] la_data_out[121] 0.00230606
9 *646:io_la_data_in[121] la_data_out[121] 0.00677629
*RES
1 *646:io_la_data_out[121] la_data_out[121] 23.4931 
*END

*D_NET *297 0.0180132
*CONN
*P la_data_out[122] O
*I *646:io_la_data_out[122] O *D CaravelTopLevel
*CAP
1 la_data_out[122] 0.00242837
2 *646:io_la_data_out[122] 0.00242837
3 la_data_out[122] *646:io_la_oenb[121] 0.00620867
4 la_data_out[122] *646:io_la_oenb[127] 0
5 la_data_out[122] *302:9 0
6 *646:io_la_data_in[122] la_data_out[122] 0.00674114
7 *646:io_la_data_in[125] la_data_out[122] 0.000206607
*RES
1 *646:io_la_data_out[122] la_data_out[122] 25.5622 
*END

*D_NET *298 0.0152831
*CONN
*P la_data_out[123] O
*I *646:io_la_data_out[123] O *D CaravelTopLevel
*CAP
1 la_data_out[123] 0.00329299
2 *646:io_la_data_out[123] 0.00329299
3 la_data_out[123] la_data_out[124] 6.48323e-05
4 la_data_out[123] *646:io_la_oenb[123] 0
5 la_data_out[123] *646:io_la_oenb[126] 0.000103604
6 la_data_out[123] *530:9 0.000109626
7 la_data_out[119] la_data_out[123] 0.0014692
8 la_data_out[121] la_data_out[123] 0.00446089
9 *646:io_la_data_in[127] la_data_out[123] 0.00248899
*RES
1 *646:io_la_data_out[123] la_data_out[123] 23.7844 
*END

*D_NET *299 0.0175856
*CONN
*P la_data_out[124] O
*I *646:io_la_data_out[124] O *D CaravelTopLevel
*CAP
1 la_data_out[124] 0.00224457
2 *646:io_la_data_out[124] 0.00224457
3 la_data_out[124] *646:io_la_oenb[124] 0.00021896
4 la_data_out[124] *646:io_la_oenb[126] 0.00429055
5 la_data_out[121] la_data_out[124] 0.00021896
6 la_data_out[123] la_data_out[124] 6.48323e-05
7 *646:io_la_data_in[120] la_data_out[124] 0.00106444
8 *646:io_la_data_in[121] la_data_out[124] 0.000842838
9 *646:io_la_data_in[123] la_data_out[124] 0.00553832
10 *646:io_la_data_in[124] la_data_out[124] 0.000857524
*RES
1 *646:io_la_data_out[124] la_data_out[124] 23.9592 
*END

*D_NET *300 0.0182811
*CONN
*P la_data_out[125] O
*I *646:io_la_data_out[125] O *D CaravelTopLevel
*CAP
1 la_data_out[125] 9.28529e-05
2 *646:io_la_data_out[125] 0.000687612
3 *300:11 0.00175516
4 *300:9 0.00234992
5 *300:11 la_data_out[126] 0.00148429
6 *300:11 *426:11 0.00526578
7 la_data_out[120] *300:9 0
8 *646:io_la_data_in[120] *300:9 0
9 *173:11 *300:11 0.00664544
*RES
1 *646:io_la_data_out[125] *300:9 13.1675 
2 *300:9 *300:11 69.795 
3 *300:11 la_data_out[125] 2.975 
*END

*D_NET *301 0.0163163
*CONN
*P la_data_out[126] O
*I *646:io_la_data_out[126] O *D CaravelTopLevel
*CAP
1 la_data_out[126] 0.0054234
2 *646:io_la_data_out[126] 0.0054234
3 la_data_out[126] *426:11 0.000824805
4 la_data_out[121] la_data_out[126] 0
5 *646:io_la_data_in[121] la_data_out[126] 0
6 *173:11 la_data_out[126] 0.00316039
7 *300:11 la_data_out[126] 0.00148429
*RES
1 *646:io_la_data_out[126] la_data_out[126] 26.4175 
*END

*D_NET *302 0.0152042
*CONN
*P la_data_out[127] O
*I *646:io_la_data_out[127] O *D CaravelTopLevel
*CAP
1 la_data_out[127] 0.00210218
2 *646:io_la_data_out[127] 0.000506668
3 *302:11 0.00355258
4 *302:9 0.00195706
5 la_data_out[127] *428:15 0
6 *302:11 *428:19 0.0028966
7 *302:11 *528:11 0.000456723
8 *302:11 *530:11 0.00373239
9 la_data_out[122] *302:9 0
10 *646:io_la_data_in[122] *302:9 0
*RES
1 *646:io_la_data_out[127] *302:9 10.2875 
2 *302:9 *302:11 49.44 
3 *302:11 la_data_out[127] 42.3 
*END

*D_NET *303 0.00805767
*CONN
*P la_data_out[12] O
*I *646:io_la_data_out[12] O *D CaravelTopLevel
*CAP
1 la_data_out[12] 0.00139242
2 *646:io_la_data_out[12] 0.00139242
3 la_data_out[12] *646:io_la_oenb[12] 0.000287742
4 la_data_out[12] *646:io_la_oenb[13] 0.00136845
5 la_data_out[10] la_data_out[12] 0.00054252
6 *646:io_la_data_in[11] la_data_out[12] 0.000516621
7 *646:io_la_data_in[12] la_data_out[12] 0.000222897
8 *646:io_la_data_in[13] la_data_out[12] 0.00233461
*RES
1 *646:io_la_data_out[12] la_data_out[12] 17.6082 
*END

*D_NET *304 0.00579368
*CONN
*P la_data_out[13] O
*I *646:io_la_data_out[13] O *D CaravelTopLevel
*CAP
1 la_data_out[13] 0.00273513
2 *646:io_la_data_out[13] 0.00273513
3 la_data_out[13] *646:io_la_oenb[13] 0
4 la_data_out[11] la_data_out[13] 0
5 *646:io_la_data_in[11] la_data_out[13] 0.000323433
*RES
1 *646:io_la_data_out[13] la_data_out[13] 16.3248 
*END

*D_NET *305 0.00648196
*CONN
*P la_data_out[14] O
*I *646:io_la_data_out[14] O *D CaravelTopLevel
*CAP
1 la_data_out[14] 0.00192304
2 *646:io_la_data_out[14] 0.00192304
3 la_data_out[14] la_data_out[16] 0
4 la_data_out[14] *646:io_la_oenb[12] 0.000322207
5 la_data_out[14] *646:io_la_oenb[16] 0
6 *646:io_la_data_in[13] la_data_out[14] 4.36274e-05
7 *646:io_la_data_in[15] la_data_out[14] 0.00227006
*RES
1 *646:io_la_data_out[14] la_data_out[14] 19.8536 
*END

*D_NET *306 0.00613686
*CONN
*P la_data_out[15] O
*I *646:io_la_data_out[15] O *D CaravelTopLevel
*CAP
1 la_data_out[15] 0.00141842
2 *646:io_la_data_out[15] 0.00141842
3 la_data_out[15] la_data_out[16] 0.000179871
4 la_data_out[15] la_data_out[17] 0.000114266
5 la_data_out[15] *646:io_la_oenb[14] 0.0012032
6 *646:io_la_data_in[15] la_data_out[15] 0.00150489
7 *646:io_la_data_in[17] la_data_out[15] 0.000297789
*RES
1 *646:io_la_data_out[15] la_data_out[15] 16.8553 
*END

*D_NET *307 0.00780275
*CONN
*P la_data_out[16] O
*I *646:io_la_data_out[16] O *D CaravelTopLevel
*CAP
1 la_data_out[16] 0.00115294
2 *646:io_la_data_out[16] 0.00115294
3 la_data_out[16] *646:io_la_oenb[14] 0.000612914
4 la_data_out[16] *646:io_la_oenb[15] 0.000297789
5 la_data_out[16] *646:io_la_oenb[16] 0.0024597
6 la_data_out[14] la_data_out[16] 0
7 la_data_out[15] la_data_out[16] 0.000179871
8 *646:io_la_data_in[17] la_data_out[16] 0.00194659
*RES
1 *646:io_la_data_out[16] la_data_out[16] 17.0255 
*END

*D_NET *308 0.00702134
*CONN
*P la_data_out[17] O
*I *646:io_la_data_out[17] O *D CaravelTopLevel
*CAP
1 la_data_out[17] 0.00139231
2 *646:io_la_data_out[17] 0.00139231
3 la_data_out[17] la_data_out[18] 0.00134142
4 la_data_out[17] la_data_out[19] 0
5 la_data_out[17] *646:io_la_oenb[17] 6.02167e-05
6 la_data_out[17] *646:io_la_oenb[18] 0.00011508
7 la_data_out[15] la_data_out[17] 0.000114266
8 *646:io_la_data_in[17] la_data_out[17] 0.00238314
9 *646:io_la_data_in[18] la_data_out[17] 0.000222592
10 *646:io_la_data_in[19] la_data_out[17] 0
*RES
1 *646:io_la_data_out[17] la_data_out[17] 16.8507 
*END

*D_NET *309 0.00618358
*CONN
*P la_data_out[18] O
*I *646:io_la_data_out[18] O *D CaravelTopLevel
*CAP
1 la_data_out[18] 0.00147877
2 *646:io_la_data_out[18] 0.00147877
3 la_data_out[18] la_data_out[19] 0.00050751
4 la_data_out[18] la_data_out[20] 0
5 la_data_out[18] *646:io_la_oenb[18] 4.15188e-05
6 la_data_out[17] la_data_out[18] 0.00134142
7 *646:io_la_data_in[18] la_data_out[18] 0.00131236
8 *646:io_la_data_in[20] la_data_out[18] 2.3228e-05
*RES
1 *646:io_la_data_out[18] la_data_out[18] 16.4474 
*END

*D_NET *310 0.00592286
*CONN
*P la_data_out[19] O
*I *646:io_la_data_out[19] O *D CaravelTopLevel
*CAP
1 la_data_out[19] 0.00144849
2 *646:io_la_data_out[19] 0.00144849
3 la_data_out[19] la_data_out[21] 0
4 la_data_out[19] *646:io_la_oenb[17] 0
5 la_data_out[19] *646:io_la_oenb[18] 0.000297789
6 la_data_out[19] *646:io_la_oenb[19] 0.00212749
7 la_data_out[17] la_data_out[19] 0
8 la_data_out[18] la_data_out[19] 0.00050751
9 *646:io_la_data_in[20] la_data_out[19] 0
10 *646:io_la_data_in[21] la_data_out[19] 9.30962e-05
*RES
1 *646:io_la_data_out[19] la_data_out[19] 16.5594 
*END

*D_NET *311 0.00952679
*CONN
*P la_data_out[1] O
*I *646:io_la_data_out[1] O *D CaravelTopLevel
*CAP
1 la_data_out[1] 0.000530998
2 *646:io_la_data_out[1] 0.00156058
3 *311:11 0.00209158
4 la_data_out[1] *646:io_wbs_adr_i[30] 0
5 *311:11 *646:io_la_oenb[0] 0.00346832
6 *311:11 *333:13 0.000527183
7 *646:io_la_data_in[0] *311:11 0.00103083
8 *646:io_la_data_in[1] *311:11 0.000317308
*RES
1 *646:io_la_data_out[1] *311:11 45.2425 
2 *311:11 la_data_out[1] 9.36 
*END

*D_NET *312 0.00470234
*CONN
*P la_data_out[20] O
*I *646:io_la_data_out[20] O *D CaravelTopLevel
*CAP
1 la_data_out[20] 0.0016378
2 *646:io_la_data_out[20] 0.0016378
3 la_data_out[20] *646:io_la_oenb[18] 0
4 la_data_out[20] *646:io_la_oenb[20] 0.00121496
5 la_data_out[18] la_data_out[20] 0
6 *646:io_la_data_in[19] la_data_out[20] 0.00011974
7 *646:io_la_data_in[22] la_data_out[20] 9.20408e-05
*RES
1 *646:io_la_data_out[20] la_data_out[20] 16.4428 
*END

*D_NET *313 0.00598661
*CONN
*P la_data_out[21] O
*I *646:io_la_data_out[21] O *D CaravelTopLevel
*CAP
1 la_data_out[21] 0.00122725
2 *646:io_la_data_out[21] 0.00122725
3 la_data_out[21] la_data_out[22] 0.000941937
4 la_data_out[21] *646:io_la_oenb[19] 0.000120219
5 la_data_out[21] *646:io_la_oenb[21] 0.000403465
6 la_data_out[19] la_data_out[21] 0
7 *646:io_la_data_in[21] la_data_out[21] 0.00198318
8 *646:io_la_data_in[22] la_data_out[21] 0
9 *646:io_la_data_in[23] la_data_out[21] 8.33038e-05
*RES
1 *646:io_la_data_out[21] la_data_out[21] 16.268 
*END

*D_NET *314 0.00582665
*CONN
*P la_data_out[22] O
*I *646:io_la_data_out[22] O *D CaravelTopLevel
*CAP
1 la_data_out[22] 0.00116798
2 *646:io_la_data_out[22] 0.00116798
3 la_data_out[22] *646:io_la_oenb[21] 0.000278181
4 la_data_out[22] *646:io_la_oenb[22] 0.00186081
5 la_data_out[22] *646:io_la_oenb[23] 0
6 la_data_out[21] la_data_out[22] 0.000941937
7 *646:io_la_data_in[22] la_data_out[22] 0
8 *646:io_la_data_in[23] la_data_out[22] 0.000409751
*RES
1 *646:io_la_data_out[22] la_data_out[22] 16.0932 
*END

*D_NET *315 0.0052418
*CONN
*P la_data_out[23] O
*I *646:io_la_data_out[23] O *D CaravelTopLevel
*CAP
1 la_data_out[23] 0.00127555
2 *646:io_la_data_out[23] 0.00127555
3 la_data_out[23] *646:io_la_oenb[21] 0.000195673
4 la_data_out[23] *646:io_la_oenb[23] 0.00181059
5 *646:io_la_data_in[22] la_data_out[23] 0.000382753
6 *646:io_la_data_in[23] la_data_out[23] 0.000301688
*RES
1 *646:io_la_data_out[23] la_data_out[23] 15.69 
*END

*D_NET *316 0.00500944
*CONN
*P la_data_out[24] O
*I *646:io_la_data_out[24] O *D CaravelTopLevel
*CAP
1 la_data_out[24] 0.00115096
2 *646:io_la_data_out[24] 0.00115096
3 la_data_out[24] *646:io_la_oenb[22] 0
4 la_data_out[24] *646:io_la_oenb[23] 0.000564161
5 la_data_out[24] *646:io_la_oenb[24] 0.00165753
6 *646:io_la_data_in[23] la_data_out[24] 0.000262928
7 *646:io_la_data_in[24] la_data_out[24] 0.000222897
*RES
1 *646:io_la_data_out[24] la_data_out[24] 15.8019 
*END

*D_NET *317 0.00487703
*CONN
*P la_data_out[25] O
*I *646:io_la_data_out[25] O *D CaravelTopLevel
*CAP
1 la_data_out[25] 0.00139202
2 *646:io_la_data_out[25] 0.00139202
3 la_data_out[25] *646:io_la_oenb[25] 0.00153777
4 la_data_out[25] *646:io_la_oenb[26] 0.000176609
5 *646:io_la_data_in[24] la_data_out[25] 0.000183045
6 *646:io_la_data_in[25] la_data_out[25] 0.00019555
7 *646:io_la_data_in[27] la_data_out[25] 0
*RES
1 *646:io_la_data_out[25] la_data_out[25] 15.6854 
*END

*D_NET *318 0.00533184
*CONN
*P la_data_out[26] O
*I *646:io_la_data_out[26] O *D CaravelTopLevel
*CAP
1 la_data_out[26] 0.00115199
2 *646:io_la_data_out[26] 0.00115199
3 la_data_out[26] la_data_out[27] 0.000270685
4 la_data_out[26] *646:io_la_oenb[26] 0.0002696
5 *646:io_la_data_in[25] la_data_out[26] 5.24319e-05
6 *646:io_la_data_in[26] la_data_out[26] 0.00144922
7 *646:io_la_data_in[27] la_data_out[26] 0.000985919
*RES
1 *646:io_la_data_out[26] la_data_out[26] 15.5106 
*END

*D_NET *319 0.00440143
*CONN
*P la_data_out[27] O
*I *646:io_la_data_out[27] O *D CaravelTopLevel
*CAP
1 la_data_out[27] 0.0011981
2 *646:io_la_data_out[27] 0.0011981
3 la_data_out[27] *646:io_la_oenb[27] 0.00135417
4 la_data_out[26] la_data_out[27] 0.000270685
5 *646:io_la_data_in[27] la_data_out[27] 0.000380377
*RES
1 *646:io_la_data_out[27] la_data_out[27] 15.394 
*END

*D_NET *320 0.00494246
*CONN
*P la_data_out[28] O
*I *646:io_la_data_out[28] O *D CaravelTopLevel
*CAP
1 la_data_out[28] 0.001089
2 *646:io_la_data_out[28] 0.001089
3 la_data_out[28] la_data_out[29] 0.00030287
4 la_data_out[28] *646:io_la_oenb[27] 0.000818757
5 la_data_out[28] *646:io_la_oenb[28] 0.000364493
6 *646:io_la_data_in[28] la_data_out[28] 0.00127834
*RES
1 *646:io_la_data_out[28] la_data_out[28] 14.9325 
*END

*D_NET *321 0.00446404
*CONN
*P la_data_out[29] O
*I *646:io_la_data_out[29] O *D CaravelTopLevel
*CAP
1 la_data_out[29] 0.0010866
2 *646:io_la_data_out[29] 0.0010866
3 la_data_out[29] la_data_out[30] 0.000160646
4 la_data_out[29] *646:io_la_oenb[28] 0.000738873
5 la_data_out[29] *646:io_la_oenb[29] 0.000301688
6 la_data_out[28] la_data_out[29] 0.00030287
7 *646:io_la_data_in[28] la_data_out[29] 0
8 *646:io_la_data_in[29] la_data_out[29] 0.000154888
9 *646:io_la_data_in[30] la_data_out[29] 0.000631868
*RES
1 *646:io_la_data_out[29] la_data_out[29] 15.1027 
*END

*D_NET *322 0.0111993
*CONN
*P la_data_out[2] O
*I *646:io_la_data_out[2] O *D CaravelTopLevel
*CAP
1 la_data_out[2] 0.00135872
2 *646:io_la_data_out[2] 0.00135872
3 la_data_out[2] *646:io_la_oenb[2] 0.00389112
4 la_data_out[2] *646:io_la_oenb[3] 7.80167e-05
5 la_data_out[2] *646:io_wbs_adr_i[31] 0
6 la_data_out[0] la_data_out[2] 0.000278181
7 *646:io_la_data_in[2] la_data_out[2] 0.00389448
8 *646:io_la_data_in[5] la_data_out[2] 0.000340034
*RES
1 *646:io_la_data_out[2] la_data_out[2] 19.0648 
*END

*D_NET *323 0.00396095
*CONN
*P la_data_out[30] O
*I *646:io_la_data_out[30] O *D CaravelTopLevel
*CAP
1 la_data_out[30] 0.00127806
2 *646:io_la_data_out[30] 0.00127806
3 la_data_out[30] *646:io_la_oenb[30] 0.00102512
4 la_data_out[29] la_data_out[30] 0.000160646
5 *646:io_la_data_in[30] la_data_out[30] 0.000219057
*RES
1 *646:io_la_data_out[30] la_data_out[30] 14.9279 
*END

*D_NET *324 0.00403942
*CONN
*P la_data_out[31] O
*I *646:io_la_data_out[31] O *D CaravelTopLevel
*CAP
1 la_data_out[31] 0.0010863
2 *646:io_la_data_out[31] 0.0010863
3 la_data_out[31] la_data_out[32] 4.55864e-06
4 la_data_out[31] *646:io_la_oenb[30] 0.000533642
5 la_data_out[31] *646:io_la_oenb[31] 0.000106217
6 *646:io_la_data_in[31] la_data_out[31] 0.000973001
7 *646:io_la_data_in[32] la_data_out[31] 0.0002494
*RES
1 *646:io_la_data_out[31] la_data_out[31] 14.7531 
*END

*D_NET *325 0.00367739
*CONN
*P la_data_out[32] O
*I *646:io_la_data_out[32] O *D CaravelTopLevel
*CAP
1 la_data_out[32] 0.00109137
2 *646:io_la_data_out[32] 0.00109137
3 la_data_out[32] *646:io_la_oenb[32] 0.000862054
4 la_data_out[31] la_data_out[32] 4.55864e-06
5 *646:io_la_data_in[32] la_data_out[32] 0.000285225
6 *646:io_la_data_in[33] la_data_out[32] 0.000342812
*RES
1 *646:io_la_data_out[32] la_data_out[32] 14.6366 
*END

*D_NET *326 0.00402708
*CONN
*P la_data_out[33] O
*I *646:io_la_data_out[33] O *D CaravelTopLevel
*CAP
1 la_data_out[33] 0.000927582
2 *646:io_la_data_out[33] 0.000927582
3 la_data_out[33] *646:io_la_oenb[32] 0.000287174
4 la_data_out[33] *646:io_la_oenb[33] 0.000818757
5 *646:io_la_data_in[33] la_data_out[33] 0.000763119
6 *646:io_la_data_in[34] la_data_out[33] 0.00030287
*RES
1 *646:io_la_data_out[33] la_data_out[33] 14.175 
*END

*D_NET *327 0.00359437
*CONN
*P la_data_out[34] O
*I *646:io_la_data_out[34] O *D CaravelTopLevel
*CAP
1 la_data_out[34] 0.00093518
2 *646:io_la_data_out[34] 0.00093518
3 la_data_out[34] *646:io_la_oenb[33] 0.000222987
4 la_data_out[34] *646:io_la_oenb[34] 0.00065899
5 *646:io_la_data_in[34] la_data_out[34] 0.000698931
6 *646:io_la_data_in[35] la_data_out[34] 0.000143103
*RES
1 *646:io_la_data_out[34] la_data_out[34] 14.3452 
*END

*D_NET *328 0.00300603
*CONN
*P la_data_out[35] O
*I *646:io_la_data_out[35] O *D CaravelTopLevel
*CAP
1 la_data_out[35] 0.000998001
2 *646:io_la_data_out[35] 0.000998001
3 la_data_out[35] *646:io_la_oenb[35] 0.000251438
4 *646:io_la_data_in[35] la_data_out[35] 0.000619048
5 *646:io_la_data_in[36] la_data_out[35] 0.000139542
*RES
1 *646:io_la_data_out[35] la_data_out[35] 14.1704 
*END

*D_NET *329 0.00274005
*CONN
*P la_data_out[36] O
*I *646:io_la_data_out[36] O *D CaravelTopLevel
*CAP
1 la_data_out[36] 0.000986073
2 *646:io_la_data_out[36] 0.000986073
3 la_data_out[36] *646:io_la_oenb[35] 2.38557e-05
4 la_data_out[36] *646:io_la_oenb[36] 0.000462637
5 *646:io_la_data_in[36] la_data_out[36] 0.000281409
*RES
1 *646:io_la_data_out[36] la_data_out[36] 14.0539 
*END

*D_NET *330 0.00253596
*CONN
*P la_data_out[37] O
*I *646:io_la_data_out[37] O *D CaravelTopLevel
*CAP
1 la_data_out[37] 0.000978135
2 *646:io_la_data_out[37] 0.000978135
3 la_data_out[37] *646:io_la_oenb[37] 0.000196937
4 *646:io_la_data_in[37] la_data_out[37] 0.000382753
5 *646:io_la_data_in[38] la_data_out[37] 0
*RES
1 *646:io_la_data_out[37] la_data_out[37] 13.8791 
*END

*D_NET *331 0.00247411
*CONN
*P la_data_out[38] O
*I *646:io_la_data_out[38] O *D CaravelTopLevel
*CAP
1 la_data_out[38] 0.000934183
2 *646:io_la_data_out[38] 0.000934183
3 la_data_out[38] *646:io_la_oenb[37] 0
4 la_data_out[38] *646:io_la_oenb[38] 0.00030287
5 *646:io_la_data_in[38] la_data_out[38] 0.00030287
*RES
1 *646:io_la_data_out[38] la_data_out[38] 13.4758 
*END

*D_NET *332 0.00228199
*CONN
*P la_data_out[39] O
*I *646:io_la_data_out[39] O *D CaravelTopLevel
*CAP
1 la_data_out[39] 0.000985463
2 *646:io_la_data_out[39] 0.000985463
3 la_data_out[39] *646:io_la_oenb[39] 0.000143103
4 *646:io_la_data_in[39] la_data_out[39] 0.000167962
*RES
1 *646:io_la_data_out[39] la_data_out[39] 13.5878 
*END

*D_NET *333 0.00930422
*CONN
*P la_data_out[3] O
*I *646:io_la_data_out[3] O *D CaravelTopLevel
*CAP
1 la_data_out[3] 0.000502629
2 *646:io_la_data_out[3] 0.00117031
3 *333:13 0.00167294
4 *333:13 la_data_out[4] 0.000275007
5 *333:13 *646:io_la_oenb[0] 0.000587985
6 *333:13 *483:13 0.000424327
7 la_data_out[0] la_data_out[3] 0.00032168
8 *646:io_la_data_in[0] la_data_out[3] 0
9 *646:io_la_data_in[1] *333:13 0.00022425
10 *205:9 *333:13 0.00359791
11 *311:11 *333:13 0.000527183
*RES
1 *646:io_la_data_out[3] *333:13 43.1125 
2 *333:13 la_data_out[3] 9.87 
*END

*D_NET *334 0.00217643
*CONN
*P la_data_out[40] O
*I *646:io_la_data_out[40] O *D CaravelTopLevel
*CAP
1 la_data_out[40] 0.000985059
2 *646:io_la_data_out[40] 0.000985059
3 la_data_out[40] *646:io_la_oenb[40] 0.000111481
4 *646:io_la_data_in[40] la_data_out[40] 9.48304e-05
*RES
1 *646:io_la_data_out[40] la_data_out[40] 13.4712 
*END

*D_NET *335 0.00197038
*CONN
*P la_data_out[41] O
*I *646:io_la_data_out[41] O *D CaravelTopLevel
*CAP
1 la_data_out[41] 0.000956825
2 *646:io_la_data_out[41] 0.000956825
3 la_data_out[41] *646:io_la_oenb[41] 4.55864e-06
4 *646:io_la_data_in[41] la_data_out[41] 5.21725e-05
*RES
1 *646:io_la_data_out[41] la_data_out[41] 13.2964 
*END

*D_NET *336 0.00163552
*CONN
*P la_data_out[42] O
*I *646:io_la_data_out[42] O *D CaravelTopLevel
*CAP
1 la_data_out[42] 0.00081776
2 *646:io_la_data_out[42] 0.00081776
*RES
1 *646:io_la_data_out[42] la_data_out[42] 14.4825 
*END

*D_NET *337 0.00150457
*CONN
*P la_data_out[43] O
*I *646:io_la_data_out[43] O *D CaravelTopLevel
*CAP
1 la_data_out[43] 0.000752287
2 *646:io_la_data_out[43] 0.000752287
3 *646:io_la_data_in[43] la_data_out[43] 0
*RES
1 *646:io_la_data_out[43] la_data_out[43] 13.5825 
*END

*D_NET *338 0.00139012
*CONN
*P la_data_out[44] O
*I *646:io_la_data_out[44] O *D CaravelTopLevel
*CAP
1 la_data_out[44] 0.000695062
2 *646:io_la_data_out[44] 0.000695062
3 la_data_out[44] *646:io_la_oenb[44] 0
*RES
1 *646:io_la_data_out[44] la_data_out[44] 12.6525 
*END

*D_NET *339 0.00131461
*CONN
*P la_data_out[45] O
*I *646:io_la_data_out[45] O *D CaravelTopLevel
*CAP
1 la_data_out[45] 0.000657303
2 *646:io_la_data_out[45] 0.000657303
*RES
1 *646:io_la_data_out[45] la_data_out[45] 11.9625 
*END

*D_NET *340 0.0012354
*CONN
*P la_data_out[46] O
*I *646:io_la_data_out[46] O *D CaravelTopLevel
*CAP
1 la_data_out[46] 0.000617701
2 *646:io_la_data_out[46] 0.000617701
*RES
1 *646:io_la_data_out[46] la_data_out[46] 10.8225 
*END

*D_NET *341 0.00119747
*CONN
*P la_data_out[47] O
*I *646:io_la_data_out[47] O *D CaravelTopLevel
*CAP
1 la_data_out[47] 0.000598737
2 *646:io_la_data_out[47] 0.000598737
*RES
1 *646:io_la_data_out[47] la_data_out[47] 10.5825 
*END

*D_NET *342 0.00131043
*CONN
*P la_data_out[48] O
*I *646:io_la_data_out[48] O *D CaravelTopLevel
*CAP
1 la_data_out[48] 0.000655213
2 *646:io_la_data_out[48] 0.000655213
*RES
1 *646:io_la_data_out[48] la_data_out[48] 11.5125 
*END

*D_NET *343 0.00133956
*CONN
*P la_data_out[49] O
*I *646:io_la_data_out[49] O *D CaravelTopLevel
*CAP
1 la_data_out[49] 0.000669781
2 *646:io_la_data_out[49] 0.000669781
3 la_data_out[49] *646:io_la_oenb[49] 0
*RES
1 *646:io_la_data_out[49] la_data_out[49] 12.2025 
*END

*D_NET *344 0.0105663
*CONN
*P la_data_out[4] O
*I *646:io_la_data_out[4] O *D CaravelTopLevel
*CAP
1 la_data_out[4] 0.0029317
2 *646:io_la_data_out[4] 0.0029317
3 la_data_out[4] *646:io_la_oenb[3] 0.00321875
4 la_data_out[4] *646:io_la_oenb[6] 0.000170064
5 la_data_out[4] *483:13 0.000405184
6 *646:io_la_data_in[5] la_data_out[4] 0.000518097
7 *646:io_la_data_in[7] la_data_out[4] 0.000115839
8 *333:13 la_data_out[4] 0.000275007
*RES
1 *646:io_la_data_out[4] la_data_out[4] 18.7735 
*END

*D_NET *345 0.00146614
*CONN
*P la_data_out[50] O
*I *646:io_la_data_out[50] O *D CaravelTopLevel
*CAP
1 la_data_out[50] 0.000733068
2 *646:io_la_data_out[50] 0.000733068
3 *646:io_la_data_in[50] la_data_out[50] 0
*RES
1 *646:io_la_data_out[50] la_data_out[50] 13.3425 
*END

*D_NET *346 0.00157809
*CONN
*P la_data_out[51] O
*I *646:io_la_data_out[51] O *D CaravelTopLevel
*CAP
1 la_data_out[51] 0.000789045
2 *646:io_la_data_out[51] 0.000789045
*RES
1 *646:io_la_data_out[51] la_data_out[51] 14.4825 
*END

*D_NET *347 0.0017479
*CONN
*P la_data_out[52] O
*I *646:io_la_data_out[52] O *D CaravelTopLevel
*CAP
1 la_data_out[52] 0.000870175
2 *646:io_la_data_out[52] 0.000870175
3 la_data_out[52] *646:io_la_oenb[52] 4.55864e-06
4 *646:io_la_data_in[52] la_data_out[52] 2.99518e-06
*RES
1 *646:io_la_data_out[52] la_data_out[52] 13.2382 
*END

*D_NET *348 0.00204663
*CONN
*P la_data_out[53] O
*I *646:io_la_data_out[53] O *D CaravelTopLevel
*CAP
1 la_data_out[53] 0.000901285
2 *646:io_la_data_out[53] 0.000901285
3 la_data_out[53] *646:io_la_oenb[53] 0.000220209
4 *646:io_la_data_in[53] la_data_out[53] 2.38557e-05
*RES
1 *646:io_la_data_out[53] la_data_out[53] 13.413 
*END

*D_NET *349 0.00209208
*CONN
*P la_data_out[54] O
*I *646:io_la_data_out[54] O *D CaravelTopLevel
*CAP
1 la_data_out[54] 0.000937549
2 *646:io_la_data_out[54] 0.000937549
3 la_data_out[54] *646:io_la_oenb[54] 0.000157868
4 *646:io_la_data_in[54] la_data_out[54] 5.91159e-05
*RES
1 *646:io_la_data_out[54] la_data_out[54] 13.5295 
*END

*D_NET *350 0.00258977
*CONN
*P la_data_out[55] O
*I *646:io_la_data_out[55] O *D CaravelTopLevel
*CAP
1 la_data_out[55] 0.00095485
2 *646:io_la_data_out[55] 0.00095485
3 la_data_out[55] *646:io_la_oenb[55] 0.000300092
4 *646:io_la_data_in[55] la_data_out[55] 0.000379975
*RES
1 *646:io_la_data_out[55] la_data_out[55] 12.9024 
*END

*D_NET *351 0.00226158
*CONN
*P la_data_out[56] O
*I *646:io_la_data_out[56] O *D CaravelTopLevel
*CAP
1 la_data_out[56] 0.000984277
2 *646:io_la_data_out[56] 0.000984277
3 la_data_out[56] *646:io_la_oenb[55] 0
4 la_data_out[56] *646:io_la_oenb[56] 0.000138904
5 *646:io_la_data_in[56] la_data_out[56] 0.000130262
6 *646:io_la_data_in[57] la_data_out[56] 2.38557e-05
*RES
1 *646:io_la_data_out[56] la_data_out[56] 13.8208 
*END

*D_NET *352 0.00274547
*CONN
*P la_data_out[57] O
*I *646:io_la_data_out[57] O *D CaravelTopLevel
*CAP
1 la_data_out[57] 0.000957343
2 *646:io_la_data_out[57] 0.000957343
3 la_data_out[57] *646:io_la_oenb[56] 4.55864e-06
4 la_data_out[57] *646:io_la_oenb[57] 0.000459859
5 *646:io_la_data_in[57] la_data_out[57] 0.000270676
6 *646:io_la_data_in[58] la_data_out[57] 9.56855e-05
*RES
1 *646:io_la_data_out[57] la_data_out[57] 13.7089 
*END

*D_NET *353 0.00265042
*CONN
*P la_data_out[58] O
*I *646:io_la_data_out[58] O *D CaravelTopLevel
*CAP
1 la_data_out[58] 0.00101234
2 *646:io_la_data_out[58] 0.00101234
3 la_data_out[58] *646:io_la_oenb[57] 2.38557e-05
4 la_data_out[58] *646:io_la_oenb[58] 0.000201512
5 *646:io_la_data_in[58] la_data_out[58] 0.000297789
6 *646:io_la_data_in[59] la_data_out[58] 0.000102594
*RES
1 *646:io_la_data_out[58] la_data_out[58] 14.1122 
*END

*D_NET *354 0.00316555
*CONN
*P la_data_out[59] O
*I *646:io_la_data_out[59] O *D CaravelTopLevel
*CAP
1 la_data_out[59] 0.00105669
2 *646:io_la_data_out[59] 0.00105669
3 la_data_out[59] *646:io_la_oenb[58] 4.78215e-05
4 la_data_out[59] *646:io_la_oenb[59] 0.000659567
5 *646:io_la_data_in[59] la_data_out[59] 0.000161737
6 *646:io_la_data_in[60] la_data_out[59] 0.000183038
*RES
1 *646:io_la_data_out[59] la_data_out[59] 14.287 
*END

*D_NET *355 0.0105731
*CONN
*P la_data_out[5] O
*I *646:io_la_data_out[5] O *D CaravelTopLevel
*CAP
1 la_data_out[5] 0.00154807
2 *646:io_la_data_out[5] 0.00154807
3 la_data_out[5] *646:io_la_oenb[2] 0.000300092
4 *646:io_la_data_in[4] la_data_out[5] 0.000391898
5 *646:io_la_data_in[5] la_data_out[5] 0.00361621
6 *646:io_la_data_in[6] la_data_out[5] 0.00301911
7 *646:io_la_data_in[7] la_data_out[5] 5.68422e-05
8 *646:io_la_data_in[8] la_data_out[5] 9.27721e-05
*RES
1 *646:io_la_data_out[5] la_data_out[5] 18.657 
*END

*D_NET *356 0.00318752
*CONN
*P la_data_out[60] O
*I *646:io_la_data_out[60] O *D CaravelTopLevel
*CAP
1 la_data_out[60] 0.00134973
2 *646:io_la_data_out[60] 0.00134973
3 la_data_out[60] la_data_out[61] 0
4 la_data_out[60] *646:io_la_oenb[60] 0.000488058
5 *646:io_la_data_in[61] la_data_out[60] 0
*RES
1 *646:io_la_data_out[60] la_data_out[60] 13.3007 
*END

*D_NET *357 0.00388312
*CONN
*P la_data_out[61] O
*I *646:io_la_data_out[61] O *D CaravelTopLevel
*CAP
1 la_data_out[61] 0.00112048
2 *646:io_la_data_out[61] 0.00112048
3 la_data_out[61] *646:io_la_oenb[60] 0
4 la_data_out[61] *646:io_la_oenb[61] 0.00085592
5 la_data_out[60] la_data_out[61] 0
6 *646:io_la_data_in[61] la_data_out[61] 0.000786241
*RES
1 *646:io_la_data_out[61] la_data_out[61] 14.5783 
*END

*D_NET *358 0.00458328
*CONN
*P la_data_out[62] O
*I *646:io_la_data_out[62] O *D CaravelTopLevel
*CAP
1 la_data_out[62] 0.00102741
2 *646:io_la_data_out[62] 0.00102741
3 la_data_out[62] la_data_out[63] 0.000599301
4 la_data_out[62] *646:io_la_oenb[62] 0.0010596
5 *646:io_la_data_in[62] la_data_out[62] 0.000252453
6 *646:io_la_data_in[63] la_data_out[62] 0.000617106
*RES
1 *646:io_la_data_out[62] la_data_out[62] 13.592 
*END

*D_NET *359 0.00348461
*CONN
*P la_data_out[63] O
*I *646:io_la_data_out[63] O *D CaravelTopLevel
*CAP
1 la_data_out[63] 0.00144265
2 *646:io_la_data_out[63] 0.00144265
3 la_data_out[62] la_data_out[63] 0.000599301
*RES
1 *646:io_la_data_out[63] la_data_out[63] 14.5829 
*END

*D_NET *360 0.0047488
*CONN
*P la_data_out[64] O
*I *646:io_la_data_out[64] O *D CaravelTopLevel
*CAP
1 la_data_out[64] 0.0010532
2 *646:io_la_data_out[64] 0.0010532
3 la_data_out[64] la_data_out[65] 0.000350189
4 la_data_out[64] *646:io_la_oenb[63] 0.000731696
5 la_data_out[64] *646:io_la_oenb[64] 0.000341079
6 la_data_out[64] *646:io_la_oenb[65] 1.97029e-06
7 *646:io_la_data_in[63] la_data_out[64] 0
8 *646:io_la_data_in[64] la_data_out[64] 0.00121747
*RES
1 *646:io_la_data_out[64] la_data_out[64] 13.9359 
*END

*D_NET *361 0.00514764
*CONN
*P la_data_out[65] O
*I *646:io_la_data_out[65] O *D CaravelTopLevel
*CAP
1 la_data_out[65] 0.000971121
2 *646:io_la_data_out[65] 0.000971121
3 la_data_out[65] la_data_out[66] 0.000427218
4 la_data_out[65] *646:io_la_oenb[64] 0.000845347
5 la_data_out[65] *646:io_la_oenb[65] 0.00133671
6 la_data_out[64] la_data_out[65] 0.000350189
7 *646:io_la_data_in[65] la_data_out[65] 0.00024594
*RES
1 *646:io_la_data_out[65] la_data_out[65] 13.9999 
*END

*D_NET *362 0.00503883
*CONN
*P la_data_out[66] O
*I *646:io_la_data_out[66] O *D CaravelTopLevel
*CAP
1 la_data_out[66] 0.00122133
2 *646:io_la_data_out[66] 0.00122133
3 la_data_out[66] *646:io_la_oenb[65] 1.74774e-05
4 la_data_out[66] *646:io_la_oenb[66] 0.00153308
5 la_data_out[66] *646:io_la_oenb[67] 2.01251e-05
6 la_data_out[65] la_data_out[66] 0.000427218
7 *646:io_la_data_in[67] la_data_out[66] 0.000598275
*RES
1 *646:io_la_data_out[66] la_data_out[66] 15.5962 
*END

*D_NET *363 0.00554594
*CONN
*P la_data_out[67] O
*I *646:io_la_data_out[67] O *D CaravelTopLevel
*CAP
1 la_data_out[67] 0.00109834
2 *646:io_la_data_out[67] 0.00109834
3 la_data_out[67] la_data_out[68] 0.000616944
4 la_data_out[67] *646:io_la_oenb[66] 0.00105427
5 la_data_out[67] *646:io_la_oenb[67] 0.00152013
6 *646:io_la_data_in[66] la_data_out[67] 4.20745e-05
7 *646:io_la_data_in[68] la_data_out[67] 0.000115849
*RES
1 *646:io_la_data_out[67] la_data_out[67] 14.3437 
*END

*D_NET *364 0.00591615
*CONN
*P la_data_out[68] O
*I *646:io_la_data_out[68] O *D CaravelTopLevel
*CAP
1 la_data_out[68] 0.00103958
2 *646:io_la_data_out[68] 0.00103958
3 la_data_out[68] *646:io_la_oenb[67] 0.000166942
4 la_data_out[68] *646:io_la_oenb[68] 0.00163031
5 la_data_out[67] la_data_out[68] 0.000616944
6 *646:io_la_data_in[68] la_data_out[68] 0.000252768
7 *646:io_la_data_in[69] la_data_out[68] 0.00117003
*RES
1 *646:io_la_data_out[68] la_data_out[68] 14.466 
*END

*D_NET *365 0.00486384
*CONN
*P la_data_out[69] O
*I *646:io_la_data_out[69] O *D CaravelTopLevel
*CAP
1 la_data_out[69] 0.00144145
2 *646:io_la_data_out[69] 0.00144145
3 *646:io_la_data_in[69] la_data_out[69] 0.00172817
4 *646:io_la_data_in[70] la_data_out[69] 0.000252768
*RES
1 *646:io_la_data_out[69] la_data_out[69] 14.6351 
*END

*D_NET *366 0.00866049
*CONN
*P la_data_out[6] O
*I *646:io_la_data_out[6] O *D CaravelTopLevel
*CAP
1 la_data_out[6] 0.00185878
2 *646:io_la_data_out[6] 0.00185878
3 la_data_out[6] la_data_out[7] 0.00243255
4 la_data_out[6] *646:io_la_oenb[4] 0.00158785
5 *646:io_la_data_in[6] la_data_out[6] 0.000777736
6 *646:io_la_data_in[8] la_data_out[6] 9.04937e-05
7 *646:io_la_data_in[9] la_data_out[6] 5.42975e-05
*RES
1 *646:io_la_data_out[6] la_data_out[6] 18.4822 
*END

*D_NET *367 0.00470848
*CONN
*P la_data_out[70] O
*I *646:io_la_data_out[70] O *D CaravelTopLevel
*CAP
1 la_data_out[70] 0.00175272
2 *646:io_la_data_out[70] 0.00175272
3 la_data_out[70] la_data_out[71] 0.000477255
4 la_data_out[70] *646:io_la_oenb[69] 0.000665162
5 la_data_out[70] *646:io_la_oenb[70] 6.06297e-05
*RES
1 *646:io_la_data_out[70] la_data_out[70] 17.2941 
*END

*D_NET *368 0.00628369
*CONN
*P la_data_out[71] O
*I *646:io_la_data_out[71] O *D CaravelTopLevel
*CAP
1 la_data_out[71] 0.00136772
2 *646:io_la_data_out[71] 0.00136772
3 la_data_out[71] la_data_out[72] 0.00106572
4 la_data_out[71] *646:io_la_oenb[70] 0.0013363
5 la_data_out[70] la_data_out[71] 0.000477255
6 *646:io_la_data_in[72] la_data_out[71] 0.000511895
7 *646:io_la_data_in[73] la_data_out[71] 0.000157073
*RES
1 *646:io_la_data_out[71] la_data_out[71] 16.4604 
*END

*D_NET *369 0.00678868
*CONN
*P la_data_out[72] O
*I *646:io_la_data_out[72] O *D CaravelTopLevel
*CAP
1 la_data_out[72] 0.00131455
2 *646:io_la_data_out[72] 0.00131455
3 la_data_out[72] *646:io_la_oenb[72] 0.00202912
4 la_data_out[72] *646:io_la_oenb[73] 0.000653744
5 la_data_out[71] la_data_out[72] 0.00106572
6 *646:io_la_data_in[73] la_data_out[72] 0.000410998
7 *646:io_la_data_in[74] la_data_out[72] 0
*RES
1 *646:io_la_data_out[72] la_data_out[72] 16.5787 
*END

*D_NET *370 0.00677493
*CONN
*P la_data_out[73] O
*I *646:io_la_data_out[73] O *D CaravelTopLevel
*CAP
1 la_data_out[73] 0.00119699
2 *646:io_la_data_out[73] 0.00119699
3 la_data_out[73] *646:io_la_oenb[73] 0.000102886
4 la_data_out[73] *646:io_la_oenb[74] 0.000767365
5 *646:io_la_data_in[72] la_data_out[73] 0.00060409
6 *646:io_la_data_in[73] la_data_out[73] 0.0020894
7 *646:io_la_data_in[74] la_data_out[73] 0.000505535
8 *646:io_la_data_in[75] la_data_out[73] 0.000311675
*RES
1 *646:io_la_data_out[73] la_data_out[73] 15.2235 
*END

*D_NET *371 0.0068343
*CONN
*P la_data_out[74] O
*I *646:io_la_data_out[74] O *D CaravelTopLevel
*CAP
1 la_data_out[74] 0.00146959
2 *646:io_la_data_out[74] 0.00146959
3 la_data_out[74] la_data_out[75] 0.000509195
4 la_data_out[74] *646:io_la_oenb[72] 0.000234646
5 la_data_out[74] *646:io_la_oenb[73] 0.00173386
6 la_data_out[74] *646:io_la_oenb[75] 0.000622059
7 *646:io_la_data_in[75] la_data_out[74] 0.000795351
*RES
1 *646:io_la_data_out[74] la_data_out[74] 17.4874 
*END

*D_NET *372 0.00724547
*CONN
*P la_data_out[75] O
*I *646:io_la_data_out[75] O *D CaravelTopLevel
*CAP
1 la_data_out[75] 0.00149953
2 *646:io_la_data_out[75] 0.00149953
3 la_data_out[75] la_data_out[77] 6.7289e-05
4 la_data_out[75] *646:io_la_oenb[75] 0.00200858
5 la_data_out[74] la_data_out[75] 0.000509195
6 *646:io_la_data_in[76] la_data_out[75] 0.00166134
*RES
1 *646:io_la_data_out[75] la_data_out[75] 19.5902 
*END

*D_NET *373 0.00734038
*CONN
*P la_data_out[76] O
*I *646:io_la_data_out[76] O *D CaravelTopLevel
*CAP
1 la_data_out[76] 0.00129751
2 *646:io_la_data_out[76] 0.00129751
3 la_data_out[76] la_data_out[78] 0.000157073
4 la_data_out[76] *646:io_la_oenb[75] 0.00192643
5 la_data_out[76] *646:io_la_oenb[76] 0.00110047
6 la_data_out[76] *646:io_la_oenb[78] 0
7 *646:io_la_data_in[75] la_data_out[76] 0.000735333
8 *646:io_la_data_in[76] la_data_out[76] 0.000209646
9 *646:io_la_data_in[78] la_data_out[76] 0.0006164
*RES
1 *646:io_la_data_out[76] la_data_out[76] 17.1596 
*END

*D_NET *374 0.00650487
*CONN
*P la_data_out[77] O
*I *646:io_la_data_out[77] O *D CaravelTopLevel
*CAP
1 la_data_out[77] 0.00165947
2 *646:io_la_data_out[77] 0.00165947
3 la_data_out[77] la_data_out[79] 0.000355925
4 la_data_out[77] *646:io_la_oenb[76] 0.000256224
5 la_data_out[77] *646:io_la_oenb[77] 0.0025065
6 la_data_out[75] la_data_out[77] 6.7289e-05
*RES
1 *646:io_la_data_out[77] la_data_out[77] 15.8587 
*END

*D_NET *375 0.00668237
*CONN
*P la_data_out[78] O
*I *646:io_la_data_out[78] O *D CaravelTopLevel
*CAP
1 la_data_out[78] 0.00166239
2 *646:io_la_data_out[78] 0.00166239
3 la_data_out[78] la_data_out[80] 0
4 la_data_out[78] *646:io_la_oenb[76] 0.000610703
5 la_data_out[78] *646:io_la_oenb[77] 0.000797161
6 la_data_out[78] *646:io_la_oenb[79] 6.32442e-05
7 la_data_out[78] *646:io_la_oenb[80] 0
8 la_data_out[76] la_data_out[78] 0.000157073
9 *646:io_la_data_in[78] la_data_out[78] 0.00132313
10 *646:io_la_data_in[80] la_data_out[78] 0.000406294
*RES
1 *646:io_la_data_out[78] la_data_out[78] 16.4327 
*END

*D_NET *376 0.00573073
*CONN
*P la_data_out[79] O
*I *646:io_la_data_out[79] O *D CaravelTopLevel
*CAP
1 la_data_out[79] 0.00182712
2 *646:io_la_data_out[79] 0.00182712
3 la_data_out[79] *646:io_la_oenb[79] 0
4 la_data_out[77] la_data_out[79] 0.000355925
5 *646:io_la_data_in[79] la_data_out[79] 0.00156353
6 *646:io_la_data_in[81] la_data_out[79] 0.000157039
*RES
1 *646:io_la_data_out[79] la_data_out[79] 18.5653 
*END

*D_NET *377 0.00742642
*CONN
*P la_data_out[7] O
*I *646:io_la_data_out[7] O *D CaravelTopLevel
*CAP
1 la_data_out[7] 0.00228409
2 *646:io_la_data_out[7] 0.00228409
3 la_data_out[7] *646:io_la_oenb[9] 0
4 la_data_out[6] la_data_out[7] 0.00243255
5 *646:io_la_data_in[10] la_data_out[7] 0
6 *646:io_la_data_in[7] la_data_out[7] 0
7 *646:io_la_data_in[8] la_data_out[7] 0
8 *646:io_la_data_in[9] la_data_out[7] 0.000425689
*RES
1 *646:io_la_data_out[7] la_data_out[7] 18.3656 
*END

*D_NET *378 0.00639417
*CONN
*P la_data_out[80] O
*I *646:io_la_data_out[80] O *D CaravelTopLevel
*CAP
1 la_data_out[80] 0.0014957
2 *646:io_la_data_out[80] 0.0014957
3 la_data_out[80] la_data_out[82] 0.00046263
4 la_data_out[80] *646:io_la_oenb[78] 0.000257795
5 la_data_out[80] *646:io_la_oenb[80] 0.00158369
6 la_data_out[78] la_data_out[80] 0
7 *646:io_la_data_in[78] la_data_out[80] 0
8 *646:io_la_data_in[79] la_data_out[80] 0.000355852
9 *646:io_la_data_in[81] la_data_out[80] 0.000742795
*RES
1 *646:io_la_data_out[80] la_data_out[80] 16.6314 
*END

*D_NET *379 0.00667053
*CONN
*P la_data_out[81] O
*I *646:io_la_data_out[81] O *D CaravelTopLevel
*CAP
1 la_data_out[81] 0.00204302
2 *646:io_la_data_out[81] 0.00204302
3 la_data_out[81] la_data_out[82] 0.000288498
4 la_data_out[81] *646:io_la_oenb[80] 0.00229599
5 la_data_out[81] *646:io_la_oenb[83] 0
*RES
1 *646:io_la_data_out[81] la_data_out[81] 17.5499 
*END

*D_NET *380 0.00752893
*CONN
*P la_data_out[82] O
*I *646:io_la_data_out[82] O *D CaravelTopLevel
*CAP
1 la_data_out[82] 0.00155591
2 *646:io_la_data_out[82] 0.00155591
3 la_data_out[82] la_data_out[84] 0
4 la_data_out[82] *646:io_la_oenb[80] 0.000205448
5 la_data_out[82] *646:io_la_oenb[84] 0
6 la_data_out[80] la_data_out[82] 0.00046263
7 la_data_out[81] la_data_out[82] 0.000288498
8 *646:io_la_data_in[80] la_data_out[82] 0.000417386
9 *646:io_la_data_in[81] la_data_out[82] 0.000579869
10 *646:io_la_data_in[83] la_data_out[82] 0.00246327
11 *646:io_la_data_in[85] la_data_out[82] 0
*RES
1 *646:io_la_data_out[82] la_data_out[82] 17.438 
*END

*D_NET *381 0.00734485
*CONN
*P la_data_out[83] O
*I *646:io_la_data_out[83] O *D CaravelTopLevel
*CAP
1 la_data_out[83] 0.00213665
2 *646:io_la_data_out[83] 0.00213665
3 la_data_out[83] la_data_out[84] 0
4 la_data_out[83] la_data_out[85] 0
5 la_data_out[83] *646:io_la_oenb[82] 0.00254475
6 la_data_out[83] *646:io_la_oenb[85] 0
7 *646:io_la_data_in[83] la_data_out[83] 0
8 *646:io_la_data_in[84] la_data_out[83] 0.000526798
9 *646:io_la_data_in[86] la_data_out[83] 0
*RES
1 *646:io_la_data_out[83] la_data_out[83] 16.7327 
*END

*D_NET *382 0.00595727
*CONN
*P la_data_out[84] O
*I *646:io_la_data_out[84] O *D CaravelTopLevel
*CAP
1 la_data_out[84] 0.00249665
2 *646:io_la_data_out[84] 0.00249665
3 la_data_out[84] la_data_out[85] 0.000963956
4 la_data_out[84] *646:io_la_oenb[84] 0
5 la_data_out[84] *646:io_la_oenb[86] 0
6 la_data_out[82] la_data_out[84] 0
7 la_data_out[83] la_data_out[84] 0
8 *646:io_la_data_in[83] la_data_out[84] 0
*RES
1 *646:io_la_data_out[84] la_data_out[84] 18.016 
*END

*D_NET *383 0.00762738
*CONN
*P la_data_out[85] O
*I *646:io_la_data_out[85] O *D CaravelTopLevel
*CAP
1 la_data_out[85] 0.00175071
2 *646:io_la_data_out[85] 0.00175071
3 la_data_out[85] la_data_out[86] 0.000428011
4 la_data_out[85] la_data_out[87] 0.000938574
5 la_data_out[85] *646:io_la_oenb[82] 0
6 la_data_out[85] *646:io_la_oenb[87] 0
7 la_data_out[83] la_data_out[85] 0
8 la_data_out[84] la_data_out[85] 0.000963956
9 *646:io_la_data_in[84] la_data_out[85] 0
10 *646:io_la_data_in[86] la_data_out[85] 0.000209385
11 *646:io_la_data_in[87] la_data_out[85] 0.00153434
12 *646:io_la_data_in[88] la_data_out[85] 5.16945e-05
*RES
1 *646:io_la_data_out[85] la_data_out[85] 17.3306 
*END

*D_NET *384 0.00964511
*CONN
*P la_data_out[86] O
*I *646:io_la_data_out[86] O *D CaravelTopLevel
*CAP
1 la_data_out[86] 0.0013677
2 *646:io_la_data_out[86] 0.0013677
3 la_data_out[85] la_data_out[86] 0.000428011
4 *646:io_la_data_in[84] la_data_out[86] 0
5 *646:io_la_data_in[86] la_data_out[86] 0.0033232
6 *646:io_la_data_in[87] la_data_out[86] 0.00307588
7 *646:io_la_data_in[89] la_data_out[86] 8.26226e-05
*RES
1 *646:io_la_data_out[86] la_data_out[86] 18.3074 
*END

*D_NET *385 0.00961181
*CONN
*P la_data_out[87] O
*I *646:io_la_data_out[87] O *D CaravelTopLevel
*CAP
1 la_data_out[87] 0.00144332
2 *646:io_la_data_out[87] 0.00144332
3 la_data_out[87] la_data_out[88] 0.00249905
4 la_data_out[87] *389:13 0
5 la_data_out[85] la_data_out[87] 0.000938574
6 *646:io_la_data_in[85] la_data_out[87] 0
7 *646:io_la_data_in[87] la_data_out[87] 0.000309193
8 *646:io_la_data_in[88] la_data_out[87] 0.00297835
*RES
1 *646:io_la_data_out[87] la_data_out[87] 18.1372 
*END

*D_NET *386 0.00929043
*CONN
*P la_data_out[88] O
*I *646:io_la_data_out[88] O *D CaravelTopLevel
*CAP
1 la_data_out[88] 0.0015539
2 *646:io_la_data_out[88] 0.0015539
3 la_data_out[88] *646:io_la_oenb[88] 0
4 la_data_out[88] *646:io_la_oenb[89] 0.000144982
5 la_data_out[88] *514:13 0
6 la_data_out[87] la_data_out[88] 0.00249905
7 *646:io_la_data_in[87] la_data_out[88] 0.00202034
8 *646:io_la_data_in[88] la_data_out[88] 0.000570269
9 *646:io_la_data_in[90] la_data_out[88] 0.000947986
*RES
1 *646:io_la_data_out[88] la_data_out[88] 18.5987 
*END

*D_NET *387 0.00879075
*CONN
*P la_data_out[89] O
*I *646:io_la_data_out[89] O *D CaravelTopLevel
*CAP
1 la_data_out[89] 0.00206615
2 *646:io_la_data_out[89] 0.00206615
3 la_data_out[89] la_data_out[92] 5.56633e-06
4 la_data_out[89] *646:io_la_oenb[89] 0.000259833
5 *646:io_la_data_in[89] la_data_out[89] 0.003606
6 *646:io_la_data_in[91] la_data_out[89] 0.00078706
*RES
1 *646:io_la_data_out[89] la_data_out[89] 18.7152 
*END

*D_NET *388 0.00648823
*CONN
*P la_data_out[8] O
*I *646:io_la_data_out[8] O *D CaravelTopLevel
*CAP
1 la_data_out[8] 0.0021052
2 *646:io_la_data_out[8] 0.0021052
3 la_data_out[8] *646:io_la_oenb[6] 0.000281617
4 la_data_out[8] *646:io_la_oenb[7] 0.000686825
5 la_data_out[8] *483:13 0
6 *646:io_la_data_in[10] la_data_out[8] 0.00120735
7 *646:io_la_data_in[6] la_data_out[8] 0
8 *646:io_la_data_in[7] la_data_out[8] 0.00010204
*RES
1 *646:io_la_data_out[8] la_data_out[8] 48.8575 
*END

*D_NET *389 0.00883308
*CONN
*P la_data_out[90] O
*I *646:io_la_data_out[90] O *D CaravelTopLevel
*CAP
1 la_data_out[90] 0.000328236
2 *646:io_la_data_out[90] 0.00159703
3 *389:13 0.00192527
4 *389:13 *514:13 0.00156476
5 *389:13 *517:11 0.00341777
6 la_data_out[87] *389:13 0
7 *646:io_la_data_in[90] *389:13 0
*RES
1 *646:io_la_data_out[90] *389:13 47.4175 
2 *389:13 la_data_out[90] 5.67 
*END

*D_NET *390 0.0101061
*CONN
*P la_data_out[91] O
*I *646:io_la_data_out[91] O *D CaravelTopLevel
*CAP
1 la_data_out[91] 0.00177489
2 *646:io_la_data_out[91] 0.00177489
3 la_data_out[91] la_data_out[92] 0.000439043
4 la_data_out[91] *646:io_la_oenb[91] 0.00382888
5 *646:io_la_data_in[90] la_data_out[91] 0.00228843
*RES
1 *646:io_la_data_out[91] la_data_out[91] 19.0648 
*END

*D_NET *391 0.00806467
*CONN
*P la_data_out[92] O
*I *646:io_la_data_out[92] O *D CaravelTopLevel
*CAP
1 la_data_out[92] 0.00224184
2 *646:io_la_data_out[92] 0.00224184
3 la_data_out[92] la_data_out[94] 0.00131197
4 la_data_out[92] *646:io_la_oenb[89] 0.000222897
5 la_data_out[92] *646:io_la_oenb[91] 0
6 la_data_out[92] *646:io_la_oenb[95] 0
7 la_data_out[92] *394:9 0
8 la_data_out[92] *519:13 0
9 la_data_out[89] la_data_out[92] 5.56633e-06
10 la_data_out[91] la_data_out[92] 0.000439043
11 *646:io_la_data_in[90] la_data_out[92] 0.00015738
12 *646:io_la_data_in[91] la_data_out[92] 0.00135809
13 *646:io_la_data_in[93] la_data_out[92] 8.604e-05
*RES
1 *646:io_la_data_out[92] la_data_out[92] 18.0728 
*END

*D_NET *392 0.00729425
*CONN
*P la_data_out[93] O
*I *646:io_la_data_out[93] O *D CaravelTopLevel
*CAP
1 la_data_out[93] 0.000397397
2 *646:io_la_data_out[93] 0.00202011
3 *392:13 0.00241751
4 *392:13 *646:io_la_oenb[93] 0
5 *392:13 *517:11 0.000467068
6 *392:13 *519:13 0.00158774
7 *392:13 *520:11 0.000404428
8 *646:io_la_data_in[93] la_data_out[93] 0
*RES
1 *646:io_la_data_out[93] *392:13 49.8325 
2 *392:13 la_data_out[93] 6.18 
*END

*D_NET *393 0.0097505
*CONN
*P la_data_out[94] O
*I *646:io_la_data_out[94] O *D CaravelTopLevel
*CAP
1 la_data_out[94] 0.0022249
2 *646:io_la_data_out[94] 0.0022249
3 la_data_out[94] la_data_out[96] 0.00184939
4 la_data_out[94] la_data_out[97] 0
5 la_data_out[94] *646:io_la_oenb[97] 0.000312244
6 la_data_out[92] la_data_out[94] 0.00131197
7 *646:io_la_data_in[93] la_data_out[94] 0.00176845
8 *646:io_la_data_in[95] la_data_out[94] 5.86554e-05
*RES
1 *646:io_la_data_out[94] la_data_out[94] 17.6159 
*END

*D_NET *394 0.00880498
*CONN
*P la_data_out[95] O
*I *646:io_la_data_out[95] O *D CaravelTopLevel
*CAP
1 la_data_out[95] 0.002217
2 *646:io_la_data_out[95] 0.000670458
3 *394:9 0.00288746
4 la_data_out[95] *522:17 0
5 la_data_out[95] *524:13 0.000736935
6 la_data_out[95] *525:17 0.000239807
7 la_data_out[92] *394:9 0
8 *646:io_la_data_in[92] *394:9 0
9 *646:io_la_data_in[96] la_data_out[95] 0.00159158
10 *268:13 la_data_out[95] 0.00046173
*RES
1 *646:io_la_data_out[95] *394:9 13.4225 
2 *394:9 la_data_out[95] 46.55 
*END

*D_NET *395 0.0101249
*CONN
*P la_data_out[96] O
*I *646:io_la_data_out[96] O *D CaravelTopLevel
*CAP
1 la_data_out[96] 0.00214777
2 *646:io_la_data_out[96] 0.00214777
3 la_data_out[96] la_data_out[98] 0.00206911
4 la_data_out[96] *646:io_la_oenb[96] 0.00124235
5 la_data_out[96] *646:io_la_oenb[99] 0.000495229
6 la_data_out[94] la_data_out[96] 0.00184939
7 *646:io_la_data_in[100] la_data_out[96] 0
8 *646:io_la_data_in[93] la_data_out[96] 2.14825e-05
9 *646:io_la_data_in[95] la_data_out[96] 0.000151817
*RES
1 *646:io_la_data_out[96] la_data_out[96] 18.6555 
*END

*D_NET *396 0.0130216
*CONN
*P la_data_out[97] O
*I *646:io_la_data_out[97] O *D CaravelTopLevel
*CAP
1 la_data_out[97] 0.00239682
2 *646:io_la_data_out[97] 0.00239682
3 la_data_out[97] la_data_out[99] 0.001175
4 la_data_out[97] *522:17 0.000212546
5 la_data_out[97] *524:13 0.000842058
6 la_data_out[97] *525:17 0.000559155
7 la_data_out[97] *526:13 0.000697461
8 la_data_out[94] la_data_out[97] 0
9 *646:io_la_data_in[94] la_data_out[97] 0.000222802
10 *646:io_la_data_in[96] la_data_out[97] 0.00279149
11 *646:io_la_data_in[98] la_data_out[97] 0.000511843
12 *646:io_la_data_in[99] la_data_out[97] 0.000209385
13 *268:13 la_data_out[97] 0.00100623
*RES
1 *646:io_la_data_out[97] la_data_out[97] 21.0223 
*END

*D_NET *397 0.0111812
*CONN
*P la_data_out[98] O
*I *646:io_la_data_out[98] O *D CaravelTopLevel
*CAP
1 la_data_out[98] 0.00302707
2 *646:io_la_data_out[98] 0.00302707
3 la_data_out[98] *646:io_la_oenb[101] 0.000491015
4 la_data_out[98] *646:io_la_oenb[96] 0.00256695
5 la_data_out[96] la_data_out[98] 0.00206911
*RES
1 *646:io_la_data_out[98] la_data_out[98] 20.8247 
*END

*D_NET *398 0.0133562
*CONN
*P la_data_out[99] O
*I *646:io_la_data_out[99] O *D CaravelTopLevel
*CAP
1 la_data_out[99] 0.00201296
2 *646:io_la_data_out[99] 0.00201296
3 la_data_out[99] *401:11 0.000460705
4 la_data_out[97] la_data_out[99] 0.001175
5 *646:io_la_data_in[100] la_data_out[99] 0.000184873
6 *646:io_la_data_in[101] la_data_out[99] 0.0028529
7 *646:io_la_data_in[103] la_data_out[99] 1.2782e-05
8 *646:io_la_data_in[99] la_data_out[99] 0.00464402
*RES
1 *646:io_la_data_out[99] la_data_out[99] 20.855 
*END

*D_NET *399 0.00851919
*CONN
*P la_data_out[9] O
*I *646:io_la_data_out[9] O *D CaravelTopLevel
*CAP
1 la_data_out[9] 0.00176889
2 *646:io_la_data_out[9] 0.00176889
3 *646:io_la_data_in[11] la_data_out[9] 0
4 *646:io_la_data_in[8] la_data_out[9] 0.00178838
5 *646:io_la_data_in[9] la_data_out[9] 0.00319303
*RES
1 *646:io_la_data_out[9] la_data_out[9] 18.0743 
*END

*D_NET *400 0.011075
*CONN
*P la_oenb[0] I
*I *646:io_la_oenb[0] I *D CaravelTopLevel
*CAP
1 la_oenb[0] 0.000560768
2 *646:io_la_oenb[0] 0.000924319
3 *400:7 0.00148509
4 *646:io_la_oenb[0] *646:io_la_oenb[1] 0.000162601
5 *646:io_la_oenb[0] *632:15 0.00296535
6 *400:7 wbs_dat_o[29] 0
7 *646:io_la_data_in[0] *646:io_la_oenb[0] 0.000531473
8 *646:io_la_data_in[1] *646:io_la_oenb[0] 0.000110525
9 *205:9 *646:io_la_oenb[0] 0.000278574
10 *311:11 *646:io_la_oenb[0] 0.00346832
11 *333:13 *646:io_la_oenb[0] 0.000587985
*RES
1 la_oenb[0] *400:7 11.615 
2 *400:7 *646:io_la_oenb[0] 43.6775 
*END

*D_NET *401 0.00795341
*CONN
*P la_oenb[100] I
*I *646:io_la_oenb[100] I *D CaravelTopLevel
*CAP
1 la_oenb[100] 0.0025638
2 *646:io_la_oenb[100] 0.000697262
3 *401:11 0.00326106
4 *646:io_la_oenb[100] *524:13 4.08846e-05
5 *401:11 *646:io_la_oenb[103] 0.00036366
6 *401:11 *403:11 0.000160745
7 *401:11 *524:13 0.000102528
8 *401:11 *525:17 0
9 *401:11 *526:13 0
10 la_data_out[99] *401:11 0.000460705
11 *646:io_la_data_in[101] *401:11 0.000150287
12 *646:io_la_data_in[104] *401:11 0.000108366
13 *275:11 *401:11 0
14 *277:9 *401:11 4.41134e-05
*RES
1 la_oenb[100] *401:11 49.9775 
2 *401:11 *646:io_la_oenb[100] 13.37 
*END

*D_NET *402 0.0145433
*CONN
*P la_oenb[101] I
*I *646:io_la_oenb[101] I *D CaravelTopLevel
*CAP
1 la_oenb[101] 0.00280162
2 *646:io_la_oenb[101] 0.00280162
3 *646:io_la_oenb[101] *646:io_la_oenb[103] 0.000203813
4 *646:io_la_oenb[101] *403:11 0.000161563
5 *646:io_la_oenb[101] *525:17 0.000162741
6 *646:io_la_oenb[101] *526:13 0.00087292
7 la_data_out[101] *646:io_la_oenb[101] 0.00472058
8 la_data_out[98] *646:io_la_oenb[101] 0.000491015
9 *646:io_la_data_in[104] *646:io_la_oenb[101] 3.0463e-06
10 *646:io_la_data_in[105] *646:io_la_oenb[101] 0.000302301
11 *275:11 *646:io_la_oenb[101] 0.00129828
12 *277:11 *646:io_la_oenb[101] 0.00072379
*RES
1 la_oenb[101] *646:io_la_oenb[101] 22.4063 
*END

*D_NET *403 0.0133848
*CONN
*P la_oenb[102] I
*I *646:io_la_oenb[102] I *D CaravelTopLevel
*CAP
1 la_oenb[102] 8.29357e-05
2 *646:io_la_oenb[102] 0.000683519
3 *403:11 0.00155108
4 *403:9 0.000950498
5 *403:11 *646:io_la_oenb[103] 0.00402349
6 *403:11 *404:11 1.14121e-05
7 la_data_out[101] *403:11 0.000319625
8 *646:io_la_data_in[105] *403:11 0.000135989
9 *646:io_la_data_in[106] *403:11 0.000109008
10 *646:io_la_data_in[99] *646:io_la_oenb[102] 2.83472e-05
11 *646:io_la_oenb[101] *403:11 0.000161563
12 *275:11 *403:11 0.00489056
13 *277:11 *403:11 0.000275995
14 *401:11 *403:11 0.000160745
*RES
1 la_oenb[102] *403:9 2.975 
2 *403:9 *403:11 48.405 
3 *403:11 *646:io_la_oenb[102] 13.9475 
*END

*D_NET *404 0.0106269
*CONN
*P la_oenb[103] I
*I *646:io_la_oenb[103] I *D CaravelTopLevel
*CAP
1 la_oenb[103] 0.000912176
2 *646:io_la_oenb[103] 0.00179965
3 *404:11 0.00271183
4 *404:11 *646:io_la_oenb[107] 2.53751e-05
5 *404:11 *406:13 0
6 la_data_out[101] *646:io_la_oenb[103] 0.00013827
7 la_data_out[103] *646:io_la_oenb[103] 0
8 *646:io_la_data_in[100] *646:io_la_oenb[103] 0
9 *646:io_la_data_in[101] *646:io_la_oenb[103] 0.000128225
10 *646:io_la_data_in[105] *646:io_la_oenb[103] 0.000147514
11 *646:io_la_data_in[105] *404:11 0.000110612
12 *646:io_la_oenb[101] *646:io_la_oenb[103] 0.000203813
13 *277:11 *404:11 0
14 *280:11 *404:11 5.09218e-05
15 *401:11 *646:io_la_oenb[103] 0.00036366
16 *403:11 *646:io_la_oenb[103] 0.00402349
17 *403:11 *404:11 1.14121e-05
*RES
1 la_oenb[103] *404:11 17.8025 
2 *404:11 *646:io_la_oenb[103] 49.16 
*END

*D_NET *405 0.00951356
*CONN
*P la_oenb[104] I
*I *646:io_la_oenb[104] I *D CaravelTopLevel
*CAP
1 la_oenb[104] 0.00126685
2 *646:io_la_oenb[104] 0.00162043
3 *405:15 0.00288728
4 *646:io_la_oenb[104] *406:13 0.000470737
5 *405:15 *406:13 0.000330062
6 *405:15 *409:13 4.82863e-05
7 la_data_out[105] *646:io_la_oenb[104] 0.000202629
8 la_data_out[105] *405:15 0.000355464
9 *152:13 *405:15 0.00233182
*RES
1 la_oenb[104] *405:15 33.2525 
2 *405:15 *646:io_la_oenb[104] 32.57 
*END

*D_NET *406 0.0114223
*CONN
*P la_oenb[105] I
*I *646:io_la_oenb[105] I *D CaravelTopLevel
*CAP
1 la_oenb[105] 0.000136912
2 *646:io_la_oenb[105] 0.000466779
3 *406:13 0.00240374
4 *406:11 0.00207387
5 *406:11 *646:io_la_oenb[109] 0.000229554
6 la_data_out[105] *406:13 0.00145014
7 *646:io_la_data_in[102] *646:io_la_oenb[105] 0
8 *646:io_la_oenb[104] *406:13 0.000470737
9 *152:13 *406:13 0.00386053
10 *404:11 *406:13 0
11 *405:15 *406:13 0.000330062
*RES
1 la_oenb[105] *406:11 5.54 
2 *406:11 *406:13 50.475 
3 *406:13 *646:io_la_oenb[105] 10.2875 
*END

*D_NET *407 0.0144332
*CONN
*P la_oenb[106] I
*I *646:io_la_oenb[106] I *D CaravelTopLevel
*CAP
1 la_oenb[106] 0.00296178
2 *646:io_la_oenb[106] 0.00296178
3 *646:io_la_oenb[106] *408:11 0.00147665
4 *646:io_la_oenb[106] *410:11 0.000622386
5 la_data_out[106] *646:io_la_oenb[106] 0.00549797
6 *646:io_la_data_in[107] *646:io_la_oenb[106] 0
7 *277:11 *646:io_la_oenb[106] 0.0009126
*RES
1 la_oenb[106] *646:io_la_oenb[106] 23.5042 
*END

*D_NET *408 0.014661
*CONN
*P la_oenb[107] I
*I *646:io_la_oenb[107] I *D CaravelTopLevel
*CAP
1 la_oenb[107] 0.00014423
2 *646:io_la_oenb[107] 0.000713099
3 *408:11 0.0018638
4 *408:9 0.00129493
5 *408:11 *410:11 0.00287232
6 *646:io_la_data_in[111] *408:11 0.00018118
7 *646:io_la_oenb[106] *408:11 0.00147665
8 *277:11 *408:11 0.000737761
9 *280:11 *408:11 0.00535161
10 *404:11 *646:io_la_oenb[107] 2.53751e-05
*RES
1 la_oenb[107] *408:9 3.665 
2 *408:9 *408:11 50.82 
3 *408:11 *646:io_la_oenb[107] 14.2025 
*END

*D_NET *409 0.0113302
*CONN
*P la_oenb[108] I
*I *646:io_la_oenb[108] I *D CaravelTopLevel
*CAP
1 la_oenb[108] 0.000304769
2 *646:io_la_oenb[108] 0.000394713
3 *409:13 0.00239085
4 *409:11 0.0023009
5 *409:11 *646:io_la_oenb[112] 0
6 la_data_out[105] *409:13 0.000201386
7 la_data_out[108] *646:io_la_oenb[108] 0
8 *152:13 *409:13 0.000314063
9 *154:9 *409:11 0
10 *154:11 *409:13 0.00537524
11 *405:15 *409:13 4.82863e-05
*RES
1 la_oenb[108] *409:11 6.65 
2 *409:11 *409:13 53.925 
3 *409:13 *646:io_la_oenb[108] 8.8325 
*END

*D_NET *410 0.0123014
*CONN
*P la_oenb[109] I
*I *646:io_la_oenb[109] I *D CaravelTopLevel
*CAP
1 la_oenb[109] 8.0907e-05
2 *646:io_la_oenb[109] 0.00068943
3 *410:11 0.00328659
4 *410:9 0.00267807
5 *646:io_la_data_in[111] *410:11 0.00184214
6 *646:io_la_oenb[106] *410:11 0.000622386
7 *406:11 *646:io_la_oenb[109] 0.000229554
8 *408:11 *410:11 0.00287232
*RES
1 la_oenb[109] *410:9 2.975 
2 *410:9 *410:11 54.615 
3 *410:11 *646:io_la_oenb[109] 14.4575 
*END

*D_NET *411 0.00781631
*CONN
*P la_oenb[10] I
*I *646:io_la_oenb[10] I *D CaravelTopLevel
*CAP
1 la_oenb[10] 0.00177755
2 *646:io_la_oenb[10] 0.00177755
3 *646:io_la_oenb[10] *646:io_la_oenb[11] 0.00196947
4 *646:io_la_oenb[10] *646:io_la_oenb[8] 0.000515392
5 *646:io_la_oenb[10] *646:io_la_oenb[9] 0.00033085
6 la_data_out[11] *646:io_la_oenb[10] 0.00135312
7 *646:io_la_data_in[11] *646:io_la_oenb[10] 0
8 *646:io_la_data_in[13] *646:io_la_oenb[10] 9.23664e-05
*RES
1 la_oenb[10] *646:io_la_oenb[10] 18.638 
*END

*D_NET *412 0.0127683
*CONN
*P la_oenb[110] I
*I *646:io_la_oenb[110] I *D CaravelTopLevel
*CAP
1 la_oenb[110] 0.000285336
2 *646:io_la_oenb[110] 0.000509391
3 *412:11 0.00170317
4 *412:9 0.00147911
5 *412:11 *413:11 0.00445278
6 *412:11 *414:13 0.00308872
7 *152:13 *412:11 0.000366576
8 *154:11 *412:11 0.000883232
*RES
1 la_oenb[110] *412:9 6.905 
2 *412:9 *412:11 53.235 
3 *412:11 *646:io_la_oenb[110] 10.5425 
*END

*D_NET *413 0.0147893
*CONN
*P la_oenb[111] I
*I *646:io_la_oenb[111] I *D CaravelTopLevel
*CAP
1 la_oenb[111] 0.000328663
2 *646:io_la_oenb[111] 0.000542193
3 *413:11 0.00140475
4 *413:9 0.00119122
5 *413:11 *414:13 0.000244975
6 *646:io_la_data_in[112] *646:io_la_oenb[111] 0
7 *158:9 *413:11 0.00559124
8 *289:11 *413:11 0.00103353
9 *412:11 *413:11 0.00445278
*RES
1 la_oenb[111] *413:9 6.65 
2 *413:9 *413:11 53.58 
3 *413:11 *646:io_la_oenb[111] 11.1425 
*END

*D_NET *414 0.014437
*CONN
*P la_oenb[112] I
*I *646:io_la_oenb[112] I *D CaravelTopLevel
*CAP
1 la_oenb[112] 0.000197703
2 *646:io_la_oenb[112] 0.000457396
3 *414:13 0.00139517
4 *414:11 0.00113548
5 *414:13 *415:11 0.000635152
6 la_data_out[108] *646:io_la_oenb[112] 0.000120613
7 *154:11 *414:13 0.000412635
8 *287:11 *414:13 0.000128187
9 *288:11 *414:13 0.00391758
10 *289:11 *414:13 0.00270341
11 *409:11 *646:io_la_oenb[112] 0
12 *412:11 *414:13 0.00308872
13 *413:11 *414:13 0.000244975
*RES
1 la_oenb[112] *414:11 5.54 
2 *414:11 *414:13 56.34 
3 *414:13 *646:io_la_oenb[112] 10.6325 
*END

*D_NET *415 0.0153485
*CONN
*P la_oenb[113] I
*I *646:io_la_oenb[113] I *D CaravelTopLevel
*CAP
1 la_oenb[113] 0.000384887
2 *646:io_la_oenb[113] 0.000383272
3 *415:11 0.00134131
4 *415:9 0.00134292
5 la_data_out[109] *646:io_la_oenb[113] 8.93419e-05
6 la_data_out[113] *415:9 0
7 *287:9 *646:io_la_oenb[113] 0
8 *287:11 *415:11 0.00592925
9 *288:11 *415:11 0.00524234
10 *414:13 *415:11 0.000635152
*RES
1 la_oenb[113] *415:9 7.325 
2 *415:9 *415:11 57.375 
3 *415:11 *646:io_la_oenb[113] 9.0875 
*END

*D_NET *416 0.0137921
*CONN
*P la_oenb[114] I
*I *646:io_la_oenb[114] I *D CaravelTopLevel
*CAP
1 la_oenb[114] 0.00276956
2 *646:io_la_oenb[114] 0.00276956
3 la_data_out[110] *646:io_la_oenb[114] 0
4 la_data_out[112] *646:io_la_oenb[114] 0.00314442
5 la_data_out[119] *646:io_la_oenb[114] 0.000351097
6 *646:io_la_data_in[110] *646:io_la_oenb[114] 0
7 *646:io_la_data_in[113] *646:io_la_oenb[114] 0.00210386
8 *646:io_la_data_in[114] *646:io_la_oenb[114] 2.58293e-06
9 *646:io_la_data_in[115] *646:io_la_oenb[114] 0.000687025
10 *646:io_la_data_in[117] *646:io_la_oenb[114] 0.00196404
*RES
1 la_oenb[114] *646:io_la_oenb[114] 21.394 
*END

*D_NET *417 0.0117824
*CONN
*P la_oenb[115] I
*I *646:io_la_oenb[115] I *D CaravelTopLevel
*CAP
1 la_oenb[115] 9.28529e-05
2 *646:io_la_oenb[115] 0.000706873
3 *417:11 0.00316065
4 *417:9 0.00254663
5 *417:11 *418:11 0.00527538
6 la_data_out[111] *646:io_la_oenb[115] 0
*RES
1 la_oenb[115] *417:9 2.975 
2 *417:9 *417:11 60.48 
3 *417:11 *646:io_la_oenb[115] 13.8575 
*END

*D_NET *418 0.0118657
*CONN
*P la_oenb[116] I
*I *646:io_la_oenb[116] I *D CaravelTopLevel
*CAP
1 la_oenb[116] 7.81834e-05
2 *646:io_la_oenb[116] 0.000749668
3 *418:11 0.00321695
4 *418:9 0.00254546
5 la_data_out[112] *646:io_la_oenb[116] 0
6 *646:io_la_data_in[117] *646:io_la_oenb[116] 0
7 *158:7 *646:io_la_oenb[116] 0
8 *417:11 *418:11 0.00527538
*RES
1 la_oenb[116] *418:9 2.975 
2 *418:9 *418:11 60.825 
3 *418:11 *646:io_la_oenb[116] 14.4575 
*END

*D_NET *419 0.0147765
*CONN
*P la_oenb[117] I
*I *646:io_la_oenb[117] I *D CaravelTopLevel
*CAP
1 la_oenb[117] 0.000169831
2 *646:io_la_oenb[117] 0.000526095
3 *419:13 0.00170044
4 *419:11 0.00134418
5 *419:11 *646:io_la_oenb[122] 9.26907e-06
6 *646:io_la_data_in[113] *646:io_la_oenb[117] 7.58408e-05
7 *289:11 *419:13 0.00311944
8 *291:11 *419:13 0.00180386
9 *292:11 *419:13 0.0057956
10 *295:11 *419:13 0.000231932
*RES
1 la_oenb[117] *419:11 5.03 
2 *419:11 *419:13 60.825 
3 *419:13 *646:io_la_oenb[117] 11.1425 
*END

*D_NET *420 0.0146767
*CONN
*P la_oenb[118] I
*I *646:io_la_oenb[118] I *D CaravelTopLevel
*CAP
1 la_oenb[118] 0.00030684
2 *646:io_la_oenb[118] 0.000366076
3 *420:11 0.00186843
4 *420:9 0.00180919
5 *420:9 *646:io_la_oenb[123] 0.000136854
6 *420:11 *423:13 0.00392904
7 *646:io_la_data_in[114] *646:io_la_oenb[118] 0.000149011
8 *288:11 *420:11 0.000620285
9 *291:11 *420:11 0.000988997
10 *292:9 *646:io_la_oenb[118] 0
11 *295:11 *420:11 0.00450193
*RES
1 la_oenb[118] *420:9 7.325 
2 *420:9 *420:11 61.515 
3 *420:11 *646:io_la_oenb[118] 9.0875 
*END

*D_NET *421 0.0138612
*CONN
*P la_oenb[119] I
*I *646:io_la_oenb[119] I *D CaravelTopLevel
*CAP
1 la_oenb[119] 0.0032974
2 *646:io_la_oenb[119] 0.0032974
3 *646:io_la_oenb[119] *646:io_la_oenb[121] 0.000177702
4 *646:io_la_oenb[119] *646:io_la_oenb[124] 0.000226746
5 *646:io_la_data_in[115] *646:io_la_oenb[119] 8.8272e-05
6 *646:io_la_data_in[117] *646:io_la_oenb[119] 0.00142402
7 *646:io_la_data_in[119] *646:io_la_oenb[119] 0.000493412
8 *646:io_la_data_in[122] *646:io_la_oenb[119] 0.00385255
9 *646:io_la_data_in[123] *646:io_la_oenb[119] 0.000511925
10 *646:io_la_data_in[124] *646:io_la_oenb[119] 0.000491733
*RES
1 la_oenb[119] *646:io_la_oenb[119] 22.099 
*END

*D_NET *422 0.00674409
*CONN
*P la_oenb[11] I
*I *646:io_la_oenb[11] I *D CaravelTopLevel
*CAP
1 la_oenb[11] 0.00205121
2 *646:io_la_oenb[11] 0.00205121
3 la_data_out[11] *646:io_la_oenb[11] 0.000346398
4 *646:io_la_data_in[12] *646:io_la_oenb[11] 0.000158569
5 *646:io_la_data_in[14] *646:io_la_oenb[11] 0.000167227
6 *646:io_la_oenb[10] *646:io_la_oenb[11] 0.00196947
*RES
1 la_oenb[11] *646:io_la_oenb[11] 19.9966 
*END

*D_NET *423 0.0119671
*CONN
*P la_oenb[120] I
*I *646:io_la_oenb[120] I *D CaravelTopLevel
*CAP
1 la_oenb[120] 0.0002486
2 *646:io_la_oenb[120] 0.000465408
3 *423:13 0.00295929
4 *423:11 0.00274248
5 *423:13 *428:19 4.64617e-05
6 *646:io_la_data_in[116] *646:io_la_oenb[120] 0
7 *646:io_la_data_in[126] *423:11 0
8 *295:11 *423:13 0.00157577
9 *420:11 *423:13 0.00392904
*RES
1 la_oenb[120] *423:11 6.305 
2 *423:11 *423:13 63.585 
3 *423:13 *646:io_la_oenb[120] 9.5225 
*END

*D_NET *424 0.0144023
*CONN
*P la_oenb[121] I
*I *646:io_la_oenb[121] I *D CaravelTopLevel
*CAP
1 la_oenb[121] 0.00384611
2 *646:io_la_oenb[121] 0.00384611
3 *646:io_la_oenb[121] *646:io_la_oenb[126] 7.57354e-05
4 la_data_out[121] *646:io_la_oenb[121] 0
5 la_data_out[122] *646:io_la_oenb[121] 0.00620867
6 *646:io_la_data_in[122] *646:io_la_oenb[121] 0.000247942
7 *646:io_la_data_in[127] *646:io_la_oenb[121] 0
8 *646:io_la_oenb[119] *646:io_la_oenb[121] 0.000177702
*RES
1 la_oenb[121] *646:io_la_oenb[121] 25.1722 
*END

*D_NET *425 0.0092456
*CONN
*P la_oenb[122] I
*I *646:io_la_oenb[122] I *D CaravelTopLevel
*CAP
1 la_oenb[122] 5.71673e-05
2 *646:io_la_oenb[122] 0.000646521
3 *425:9 0.00412406
4 *425:7 0.00353471
5 *425:9 *426:11 0.000766092
6 *425:9 *428:19 0
7 *646:io_la_data_in[118] *646:io_la_oenb[122] 0
8 *292:11 *425:9 0.000107773
9 *295:11 *425:9 0
10 *419:11 *646:io_la_oenb[122] 9.26907e-06
*RES
1 la_oenb[122] *425:7 2.945 
2 *425:7 *425:9 65.31 
3 *425:9 *646:io_la_oenb[122] 12.6725 
*END

*D_NET *426 0.0136442
*CONN
*P la_oenb[123] I
*I *646:io_la_oenb[123] I *D CaravelTopLevel
*CAP
1 la_oenb[123] 0.000111079
2 *646:io_la_oenb[123] 0.000639375
3 *426:11 0.00321428
4 *426:9 0.00268598
5 la_data_out[123] *646:io_la_oenb[123] 0
6 la_data_out[126] *426:11 0.000824805
7 *300:11 *426:11 0.00526578
8 *420:9 *646:io_la_oenb[123] 0.000136854
9 *425:9 *426:11 0.000766092
*RES
1 la_oenb[123] *426:9 2.975 
2 *426:9 *426:11 68.415 
3 *426:11 *646:io_la_oenb[123] 13.0175 
*END

*D_NET *427 0.0188785
*CONN
*P la_oenb[124] I
*I *646:io_la_oenb[124] I *D CaravelTopLevel
*CAP
1 la_oenb[124] 0.0022548
2 *646:io_la_oenb[124] 0.0022548
3 *646:io_la_oenb[124] *646:io_la_oenb[126] 0.00015643
4 la_data_out[124] *646:io_la_oenb[124] 0.00021896
5 *646:io_la_data_in[122] *646:io_la_oenb[124] 0.000124238
6 *646:io_la_data_in[124] *646:io_la_oenb[124] 0.00655065
7 *646:io_la_data_in[125] *646:io_la_oenb[124] 0.0070919
8 *646:io_la_oenb[119] *646:io_la_oenb[124] 0.000226746
*RES
1 la_oenb[124] *646:io_la_oenb[124] 22.9089 
*END

*D_NET *428 0.0129613
*CONN
*P la_oenb[125] I
*I *646:io_la_oenb[125] I *D CaravelTopLevel
*CAP
1 la_oenb[125] 0.00211444
2 *646:io_la_oenb[125] 0.00053621
3 *428:19 0.00274009
4 *428:15 0.00431832
5 la_data_out[120] *646:io_la_oenb[125] 0
6 la_data_out[127] *428:15 0
7 *646:io_la_data_in[124] *428:15 0.000309163
8 *302:11 *428:19 0.0028966
9 *423:13 *428:19 4.64617e-05
10 *425:9 *428:19 0
*RES
1 la_oenb[125] *428:15 43.59 
2 *428:15 *428:19 49.025 
3 *428:19 *646:io_la_oenb[125] 8.5425 
*END

*D_NET *429 0.0170815
*CONN
*P la_oenb[126] I
*I *646:io_la_oenb[126] I *D CaravelTopLevel
*CAP
1 la_oenb[126] 0.00263701
2 *646:io_la_oenb[126] 0.00263701
3 *646:io_la_oenb[126] *646:io_la_oenb[127] 0.00644401
4 la_data_out[123] *646:io_la_oenb[126] 0.000103604
5 la_data_out[124] *646:io_la_oenb[126] 0.00429055
6 *646:io_la_data_in[125] *646:io_la_oenb[126] 9.38683e-05
7 *646:io_la_data_in[127] *646:io_la_oenb[126] 0.000643271
8 *646:io_la_oenb[121] *646:io_la_oenb[126] 7.57354e-05
9 *646:io_la_oenb[124] *646:io_la_oenb[126] 0.00015643
*RES
1 la_oenb[126] *646:io_la_oenb[126] 24.3088 
*END

*D_NET *430 0.01861
*CONN
*P la_oenb[127] I
*I *646:io_la_oenb[127] I *D CaravelTopLevel
*CAP
1 la_oenb[127] 0.00232939
2 *646:io_la_oenb[127] 0.00232939
3 *646:io_la_oenb[127] user_irq[2] 0.000544596
4 la_data_out[122] *646:io_la_oenb[127] 0
5 *646:io_la_data_in[127] *646:io_la_oenb[127] 0.00696266
6 *646:io_la_oenb[126] *646:io_la_oenb[127] 0.00644401
*RES
1 la_oenb[127] *646:io_la_oenb[127] 24.4254 
*END

*D_NET *431 0.00845
*CONN
*P la_oenb[12] I
*I *646:io_la_oenb[12] I *D CaravelTopLevel
*CAP
1 la_oenb[12] 0.00133281
2 *646:io_la_oenb[12] 0.00133281
3 la_data_out[12] *646:io_la_oenb[12] 0.000287742
4 la_data_out[14] *646:io_la_oenb[12] 0.000322207
5 *646:io_la_data_in[12] *646:io_la_oenb[12] 0.00236387
6 *646:io_la_data_in[13] *646:io_la_oenb[12] 0.00281056
*RES
1 la_oenb[12] *646:io_la_oenb[12] 17.5499 
*END

*D_NET *432 0.00847967
*CONN
*P la_oenb[13] I
*I *646:io_la_oenb[13] I *D CaravelTopLevel
*CAP
1 la_oenb[13] 0.00120301
2 *646:io_la_oenb[13] 0.00120301
3 *646:io_la_oenb[13] *646:io_la_oenb[14] 0.0017279
4 la_data_out[11] *646:io_la_oenb[13] 0.000118127
5 la_data_out[12] *646:io_la_oenb[13] 0.00136845
6 la_data_out[13] *646:io_la_oenb[13] 0
7 *646:io_la_data_in[13] *646:io_la_oenb[13] 0.000101523
8 *646:io_la_data_in[14] *646:io_la_oenb[13] 0.00275764
9 *646:io_la_data_in[16] *646:io_la_oenb[13] 0
*RES
1 la_oenb[13] *646:io_la_oenb[13] 17.4334 
*END

*D_NET *433 0.00738428
*CONN
*P la_oenb[14] I
*I *646:io_la_oenb[14] I *D CaravelTopLevel
*CAP
1 la_oenb[14] 0.00126891
2 *646:io_la_oenb[14] 0.00126891
3 *646:io_la_oenb[14] *646:io_la_oenb[15] 0.000144973
4 *646:io_la_oenb[14] *646:io_la_oenb[16] 4.88425e-05
5 la_data_out[15] *646:io_la_oenb[14] 0.0012032
6 la_data_out[16] *646:io_la_oenb[14] 0.000612914
7 *646:io_la_data_in[13] *646:io_la_oenb[14] 0.000778815
8 *646:io_la_data_in[14] *646:io_la_oenb[14] 0.000246551
9 *646:io_la_data_in[15] *646:io_la_oenb[14] 8.32697e-05
10 *646:io_la_oenb[13] *646:io_la_oenb[14] 0.0017279
*RES
1 la_oenb[14] *646:io_la_oenb[14] 17.2586 
*END

*D_NET *434 0.00773702
*CONN
*P la_oenb[15] I
*I *646:io_la_oenb[15] I *D CaravelTopLevel
*CAP
1 la_oenb[15] 0.00128697
2 *646:io_la_oenb[15] 0.00128697
3 *646:io_la_oenb[15] *646:io_la_oenb[16] 0.001531
4 la_data_out[16] *646:io_la_oenb[15] 0.000297789
5 *646:io_la_data_in[14] *646:io_la_oenb[15] 0.000626554
6 *646:io_la_data_in[16] *646:io_la_oenb[15] 0.00256277
7 *646:io_la_oenb[14] *646:io_la_oenb[15] 0.000144973
*RES
1 la_oenb[15] *646:io_la_oenb[15] 17.0838 
*END

*D_NET *435 0.00722304
*CONN
*P la_oenb[16] I
*I *646:io_la_oenb[16] I *D CaravelTopLevel
*CAP
1 la_oenb[16] 0.00129378
2 *646:io_la_oenb[16] 0.00129378
3 *646:io_la_oenb[16] *646:io_la_oenb[18] 2.95595e-05
4 la_data_out[14] *646:io_la_oenb[16] 0
5 la_data_out[16] *646:io_la_oenb[16] 0.0024597
6 *646:io_la_data_in[16] *646:io_la_oenb[16] 0.000260796
7 *646:io_la_data_in[17] *646:io_la_oenb[16] 0.000305587
8 *646:io_la_oenb[14] *646:io_la_oenb[16] 4.88425e-05
9 *646:io_la_oenb[15] *646:io_la_oenb[16] 0.001531
*RES
1 la_oenb[16] *646:io_la_oenb[16] 16.6805 
*END

*D_NET *436 0.00608908
*CONN
*P la_oenb[17] I
*I *646:io_la_oenb[17] I *D CaravelTopLevel
*CAP
1 la_oenb[17] 0.00182903
2 *646:io_la_oenb[17] 0.00182903
3 *646:io_la_oenb[17] *646:io_la_oenb[19] 0
4 la_data_out[17] *646:io_la_oenb[17] 6.02167e-05
5 la_data_out[19] *646:io_la_oenb[17] 0
6 *646:io_la_data_in[18] *646:io_la_oenb[17] 0.00237079
*RES
1 la_oenb[17] *646:io_la_oenb[17] 18.2261 
*END

*D_NET *437 0.00684616
*CONN
*P la_oenb[18] I
*I *646:io_la_oenb[18] I *D CaravelTopLevel
*CAP
1 la_oenb[18] 0.0014171
2 *646:io_la_oenb[18] 0.0014171
3 *646:io_la_oenb[18] *646:io_la_oenb[19] 0.00117838
4 *646:io_la_oenb[18] *646:io_la_oenb[20] 0
5 la_data_out[17] *646:io_la_oenb[18] 0.00011508
6 la_data_out[18] *646:io_la_oenb[18] 4.15188e-05
7 la_data_out[19] *646:io_la_oenb[18] 0.000297789
8 la_data_out[20] *646:io_la_oenb[18] 0
9 *646:io_la_data_in[17] *646:io_la_oenb[18] 0.000158575
10 *646:io_la_data_in[19] *646:io_la_oenb[18] 0.00219106
11 *646:io_la_oenb[16] *646:io_la_oenb[18] 2.95595e-05
*RES
1 la_oenb[18] *646:io_la_oenb[18] 16.6759 
*END

*D_NET *438 0.00648864
*CONN
*P la_oenb[19] I
*I *646:io_la_oenb[19] I *D CaravelTopLevel
*CAP
1 la_oenb[19] 0.0012697
2 *646:io_la_oenb[19] 0.0012697
3 *646:io_la_oenb[19] *646:io_la_oenb[20] 8.01933e-05
4 la_data_out[19] *646:io_la_oenb[19] 0.00212749
5 la_data_out[21] *646:io_la_oenb[19] 0.000120219
6 *646:io_la_data_in[18] *646:io_la_oenb[19] 0
7 *646:io_la_data_in[19] *646:io_la_oenb[19] 0.000278181
8 *646:io_la_data_in[20] *646:io_la_oenb[19] 0
9 *646:io_la_data_in[21] *646:io_la_oenb[19] 0.000164771
10 *646:io_la_oenb[17] *646:io_la_oenb[19] 0
11 *646:io_la_oenb[18] *646:io_la_oenb[19] 0.00117838
*RES
1 la_oenb[19] *646:io_la_oenb[19] 16.5011 
*END

*D_NET *439 0.0089695
*CONN
*P la_oenb[1] I
*I *646:io_la_oenb[1] I *D CaravelTopLevel
*CAP
1 la_oenb[1] 0.000612617
2 *646:io_la_oenb[1] 0.00149884
3 *439:7 0.00211146
4 *646:io_la_oenb[1] *646:io_wbs_dat_i[31] 0.00105783
5 *646:io_la_oenb[1] *631:13 0.000160338
6 *646:io_la_oenb[1] *632:15 0.000263368
7 *646:io_la_data_in[1] *646:io_la_oenb[1] 0.000740874
8 *646:io_la_oenb[0] *646:io_la_oenb[1] 0.000162601
9 *205:9 *646:io_la_oenb[1] 0.00236157
*RES
1 la_oenb[1] *439:7 12.38 
2 *439:7 *646:io_la_oenb[1] 42.2375 
*END

*D_NET *440 0.00593944
*CONN
*P la_oenb[20] I
*I *646:io_la_oenb[20] I *D CaravelTopLevel
*CAP
1 la_oenb[20] 0.00121328
2 *646:io_la_oenb[20] 0.00121328
3 la_data_out[20] *646:io_la_oenb[20] 0.00121496
4 *646:io_la_data_in[19] *646:io_la_oenb[20] 7.7924e-05
5 *646:io_la_data_in[21] *646:io_la_oenb[20] 0.00201976
6 *646:io_la_data_in[22] *646:io_la_oenb[20] 0.000120028
7 *646:io_la_oenb[18] *646:io_la_oenb[20] 0
8 *646:io_la_oenb[19] *646:io_la_oenb[20] 8.01933e-05
*RES
1 la_oenb[20] *646:io_la_oenb[20] 16.3846 
*END

*D_NET *441 0.00516338
*CONN
*P la_oenb[21] I
*I *646:io_la_oenb[21] I *D CaravelTopLevel
*CAP
1 la_oenb[21] 0.00157409
2 *646:io_la_oenb[21] 0.00157409
3 *646:io_la_oenb[21] *646:io_la_oenb[22] 0.000949871
4 la_data_out[21] *646:io_la_oenb[21] 0.000403465
5 la_data_out[22] *646:io_la_oenb[21] 0.000278181
6 la_data_out[23] *646:io_la_oenb[21] 0.000195673
7 *646:io_la_data_in[20] *646:io_la_oenb[21] 0.000188019
*RES
1 la_oenb[21] *646:io_la_oenb[21] 15.923 
*END

*D_NET *442 0.0058415
*CONN
*P la_oenb[22] I
*I *646:io_la_oenb[22] I *D CaravelTopLevel
*CAP
1 la_oenb[22] 0.00134321
2 *646:io_la_oenb[22] 0.00134321
3 la_data_out[22] *646:io_la_oenb[22] 0.00186081
4 la_data_out[24] *646:io_la_oenb[22] 0
5 *646:io_la_data_in[23] *646:io_la_oenb[22] 4.15188e-05
6 *646:io_la_data_in[24] *646:io_la_oenb[22] 0.00030287
7 *646:io_la_oenb[21] *646:io_la_oenb[22] 0.000949871
*RES
1 la_oenb[22] *646:io_la_oenb[22] 16.0932 
*END

*D_NET *443 0.00577926
*CONN
*P la_oenb[23] I
*I *646:io_la_oenb[23] I *D CaravelTopLevel
*CAP
1 la_oenb[23] 0.0010563
2 *646:io_la_oenb[23] 0.0010563
3 la_data_out[22] *646:io_la_oenb[23] 0
4 la_data_out[23] *646:io_la_oenb[23] 0.00181059
5 la_data_out[24] *646:io_la_oenb[23] 0.000564161
6 *646:io_la_data_in[23] *646:io_la_oenb[23] 0.00129192
*RES
1 la_oenb[23] *646:io_la_oenb[23] 15.9184 
*END

*D_NET *444 0.00582259
*CONN
*P la_oenb[24] I
*I *646:io_la_oenb[24] I *D CaravelTopLevel
*CAP
1 la_oenb[24] 0.00106679
2 *646:io_la_oenb[24] 0.00106679
3 la_data_out[24] *646:io_la_oenb[24] 0.00165753
4 *646:io_la_data_in[24] *646:io_la_oenb[24] 0.000278181
5 *646:io_la_data_in[25] *646:io_la_oenb[24] 0.00163177
6 *646:io_la_data_in[26] *646:io_la_oenb[24] 0.000121531
*RES
1 la_oenb[24] *646:io_la_oenb[24] 15.7436 
*END

*D_NET *445 0.00548204
*CONN
*P la_oenb[25] I
*I *646:io_la_oenb[25] I *D CaravelTopLevel
*CAP
1 la_oenb[25] 0.00116007
2 *646:io_la_oenb[25] 0.00116007
3 la_data_out[25] *646:io_la_oenb[25] 0.00153777
4 *646:io_la_data_in[25] *646:io_la_oenb[25] 0.00114171
5 *646:io_la_data_in[26] *646:io_la_oenb[25] 0.000359231
6 *646:io_la_data_in[27] *646:io_la_oenb[25] 0.000123181
*RES
1 la_oenb[25] *646:io_la_oenb[25] 15.6271 
*END

*D_NET *446 0.00488486
*CONN
*P la_oenb[26] I
*I *646:io_la_oenb[26] I *D CaravelTopLevel
*CAP
1 la_oenb[26] 0.00146704
2 *646:io_la_oenb[26] 0.00146704
3 la_data_out[25] *646:io_la_oenb[26] 0.000176609
4 la_data_out[26] *646:io_la_oenb[26] 0.0002696
5 *646:io_la_data_in[25] *646:io_la_oenb[26] 0
6 *646:io_la_data_in[27] *646:io_la_oenb[26] 0.00150458
*RES
1 la_oenb[26] *646:io_la_oenb[26] 16.9788 
*END

*D_NET *447 0.00495437
*CONN
*P la_oenb[27] I
*I *646:io_la_oenb[27] I *D CaravelTopLevel
*CAP
1 la_oenb[27] 0.00110608
2 *646:io_la_oenb[27] 0.00110608
3 *646:io_la_oenb[27] *646:io_la_oenb[28] 0.00030287
4 la_data_out[27] *646:io_la_oenb[27] 0.00135417
5 la_data_out[28] *646:io_la_oenb[27] 0.000818757
6 *646:io_la_data_in[28] *646:io_la_oenb[27] 0.000266415
7 *646:io_la_data_in[29] *646:io_la_oenb[27] 0
*RES
1 la_oenb[27] *646:io_la_oenb[27] 15.3358 
*END

*D_NET *448 0.00423976
*CONN
*P la_oenb[28] I
*I *646:io_la_oenb[28] I *D CaravelTopLevel
*CAP
1 la_oenb[28] 0.00117374
2 *646:io_la_oenb[28] 0.00117374
3 la_data_out[28] *646:io_la_oenb[28] 0.000364493
4 la_data_out[29] *646:io_la_oenb[28] 0.000738873
5 *646:io_la_data_in[29] *646:io_la_oenb[28] 0.000486033
6 *646:io_la_oenb[27] *646:io_la_oenb[28] 0.00030287
*RES
1 la_oenb[28] *646:io_la_oenb[28] 15.161 
*END

*D_NET *449 0.00401515
*CONN
*P la_oenb[29] I
*I *646:io_la_oenb[29] I *D CaravelTopLevel
*CAP
1 la_oenb[29] 0.0012784
2 *646:io_la_oenb[29] 0.0012784
3 *646:io_la_oenb[29] *646:io_la_oenb[30] 4.88425e-05
4 la_data_out[29] *646:io_la_oenb[29] 0.000301688
5 *646:io_la_data_in[30] *646:io_la_oenb[29] 0.00110781
*RES
1 la_oenb[29] *646:io_la_oenb[29] 15.0444 
*END

*D_NET *450 0.0108018
*CONN
*P la_oenb[2] I
*I *646:io_la_oenb[2] I *D CaravelTopLevel
*CAP
1 la_oenb[2] 0.00155668
2 *646:io_la_oenb[2] 0.00155668
3 *646:io_la_oenb[2] *483:13 0
4 la_data_out[0] *646:io_la_oenb[2] 0.00106591
5 la_data_out[2] *646:io_la_oenb[2] 0.00389112
6 la_data_out[5] *646:io_la_oenb[2] 0.000300092
7 *646:io_la_data_in[4] *646:io_la_oenb[2] 0.00232983
8 *646:io_la_data_in[5] *646:io_la_oenb[2] 0.000101523
*RES
1 la_oenb[2] *646:io_la_oenb[2] 19.0648 
*END

*D_NET *451 0.00461416
*CONN
*P la_oenb[30] I
*I *646:io_la_oenb[30] I *D CaravelTopLevel
*CAP
1 la_oenb[30] 0.000986237
2 *646:io_la_oenb[30] 0.000986237
3 *646:io_la_oenb[30] *646:io_la_oenb[31] 0.000208467
4 la_data_out[30] *646:io_la_oenb[30] 0.00102512
5 la_data_out[31] *646:io_la_oenb[30] 0.000533642
6 *646:io_la_data_in[30] *646:io_la_oenb[30] 0.000619048
7 *646:io_la_data_in[31] *646:io_la_oenb[30] 0.000206566
8 *646:io_la_oenb[29] *646:io_la_oenb[30] 4.88425e-05
*RES
1 la_oenb[30] *646:io_la_oenb[30] 14.5829 
*END

*D_NET *452 0.00330136
*CONN
*P la_oenb[31] I
*I *646:io_la_oenb[31] I *D CaravelTopLevel
*CAP
1 la_oenb[31] 0.0013055
2 *646:io_la_oenb[31] 0.0013055
3 la_data_out[31] *646:io_la_oenb[31] 0.000106217
4 *646:io_la_data_in[32] *646:io_la_oenb[31] 0.000375677
5 *646:io_la_oenb[30] *646:io_la_oenb[31] 0.000208467
*RES
1 la_oenb[31] *646:io_la_oenb[31] 14.4664 
*END

*D_NET *453 0.00379169
*CONN
*P la_oenb[32] I
*I *646:io_la_oenb[32] I *D CaravelTopLevel
*CAP
1 la_oenb[32] 0.00108607
2 *646:io_la_oenb[32] 0.00108607
3 la_data_out[32] *646:io_la_oenb[32] 0.000862054
4 la_data_out[33] *646:io_la_oenb[32] 0.000287174
5 *646:io_la_data_in[32] *646:io_la_oenb[32] 0.000382753
6 *646:io_la_data_in[33] *646:io_la_oenb[32] 8.75774e-05
*RES
1 la_oenb[32] *646:io_la_oenb[32] 14.5783 
*END

*D_NET *454 0.00332242
*CONN
*P la_oenb[33] I
*I *646:io_la_oenb[33] I *D CaravelTopLevel
*CAP
1 la_oenb[33] 0.00107782
2 *646:io_la_oenb[33] 0.00107782
3 la_data_out[33] *646:io_la_oenb[33] 0.000818757
4 la_data_out[34] *646:io_la_oenb[33] 0.000222987
5 *646:io_la_data_in[34] *646:io_la_oenb[33] 0.00012503
*RES
1 la_oenb[33] *646:io_la_oenb[33] 14.4618 
*END

*D_NET *455 0.00302764
*CONN
*P la_oenb[34] I
*I *646:io_la_oenb[34] I *D CaravelTopLevel
*CAP
1 la_oenb[34] 0.00104329
2 *646:io_la_oenb[34] 0.00104329
3 la_data_out[34] *646:io_la_oenb[34] 0.00065899
4 *646:io_la_data_in[35] *646:io_la_oenb[34] 0.00028208
*RES
1 la_oenb[34] *646:io_la_oenb[34] 14.287 
*END

*D_NET *456 0.00305192
*CONN
*P la_oenb[35] I
*I *646:io_la_oenb[35] I *D CaravelTopLevel
*CAP
1 la_oenb[35] 0.00106736
2 *646:io_la_oenb[35] 0.00106736
3 la_data_out[35] *646:io_la_oenb[35] 0.000251438
4 la_data_out[36] *646:io_la_oenb[35] 2.38557e-05
5 *646:io_la_data_in[35] *646:io_la_oenb[35] 0.000129862
6 *646:io_la_data_in[36] *646:io_la_oenb[35] 0.000512036
*RES
1 la_oenb[35] *646:io_la_oenb[35] 14.1122 
*END

*D_NET *457 0.00278273
*CONN
*P la_oenb[36] I
*I *646:io_la_oenb[36] I *D CaravelTopLevel
*CAP
1 la_oenb[36] 0.00107049
2 *646:io_la_oenb[36] 0.00107049
3 la_data_out[36] *646:io_la_oenb[36] 0.000462637
4 *646:io_la_data_in[37] *646:io_la_oenb[36] 0.000179121
*RES
1 la_oenb[36] *646:io_la_oenb[36] 13.4222 
*END

*D_NET *458 0.00236598
*CONN
*P la_oenb[37] I
*I *646:io_la_oenb[37] I *D CaravelTopLevel
*CAP
1 la_oenb[37] 0.000997808
2 *646:io_la_oenb[37] 0.000997808
3 la_data_out[37] *646:io_la_oenb[37] 0.000196937
4 la_data_out[38] *646:io_la_oenb[37] 0
5 *646:io_la_data_in[37] *646:io_la_oenb[37] 0
6 *646:io_la_data_in[38] *646:io_la_oenb[37] 0.00017343
*RES
1 la_oenb[37] *646:io_la_oenb[37] 13.8208 
*END

*D_NET *459 0.00239362
*CONN
*P la_oenb[38] I
*I *646:io_la_oenb[38] I *D CaravelTopLevel
*CAP
1 la_oenb[38] 0.000933879
2 *646:io_la_oenb[38] 0.000933879
3 la_data_out[38] *646:io_la_oenb[38] 0.00030287
4 *646:io_la_data_in[39] *646:io_la_oenb[38] 0.000222987
*RES
1 la_oenb[38] *646:io_la_oenb[38] 13.7043 
*END

*D_NET *460 0.0021343
*CONN
*P la_oenb[39] I
*I *646:io_la_oenb[39] I *D CaravelTopLevel
*CAP
1 la_oenb[39] 0.000932055
2 *646:io_la_oenb[39] 0.000932055
3 la_data_out[39] *646:io_la_oenb[39] 0.000143103
4 *646:io_la_data_in[40] *646:io_la_oenb[39] 0.000127084
*RES
1 la_oenb[39] *646:io_la_oenb[39] 13.5295 
*END

*D_NET *461 0.0106639
*CONN
*P la_oenb[3] I
*I *646:io_la_oenb[3] I *D CaravelTopLevel
*CAP
1 la_oenb[3] 0.00152452
2 *646:io_la_oenb[3] 0.00152452
3 *646:io_la_oenb[3] *646:io_la_oenb[6] 0
4 la_data_out[2] *646:io_la_oenb[3] 7.80167e-05
5 la_data_out[4] *646:io_la_oenb[3] 0.00321875
6 *646:io_la_data_in[1] *646:io_la_oenb[3] 0.000197327
7 *646:io_la_data_in[2] *646:io_la_oenb[3] 0.00189718
8 *646:io_la_data_in[5] *646:io_la_oenb[3] 0.00222357
*RES
1 la_oenb[3] *646:io_la_oenb[3] 18.89 
*END

*D_NET *462 0.0019758
*CONN
*P la_oenb[40] I
*I *646:io_la_oenb[40] I *D CaravelTopLevel
*CAP
1 la_oenb[40] 0.000920233
2 *646:io_la_oenb[40] 0.000920233
3 la_data_out[40] *646:io_la_oenb[40] 0.000111481
4 *646:io_la_data_in[41] *646:io_la_oenb[40] 2.38557e-05
*RES
1 la_oenb[40] *646:io_la_oenb[40] 13.413 
*END

*D_NET *463 0.00175349
*CONN
*P la_oenb[41] I
*I *646:io_la_oenb[41] I *D CaravelTopLevel
*CAP
1 la_oenb[41] 0.000853778
2 *646:io_la_oenb[41] 0.000853778
3 la_data_out[41] *646:io_la_oenb[41] 4.55864e-06
4 *646:io_la_data_in[42] *646:io_la_oenb[41] 4.13713e-05
*RES
1 la_oenb[41] *646:io_la_oenb[41] 13.2382 
*END

*D_NET *464 0.00157809
*CONN
*P la_oenb[42] I
*I *646:io_la_oenb[42] I *D CaravelTopLevel
*CAP
1 la_oenb[42] 0.000789045
2 *646:io_la_oenb[42] 0.000789045
*RES
1 la_oenb[42] *646:io_la_oenb[42] 14.4825 
*END

*D_NET *465 0.00146614
*CONN
*P la_oenb[43] I
*I *646:io_la_oenb[43] I *D CaravelTopLevel
*CAP
1 la_oenb[43] 0.000733068
2 *646:io_la_oenb[43] 0.000733068
3 *646:io_la_data_in[44] *646:io_la_oenb[43] 0
*RES
1 la_oenb[43] *646:io_la_oenb[43] 13.3425 
*END

*D_NET *466 0.00133956
*CONN
*P la_oenb[44] I
*I *646:io_la_oenb[44] I *D CaravelTopLevel
*CAP
1 la_oenb[44] 0.000669781
2 *646:io_la_oenb[44] 0.000669781
3 la_data_out[44] *646:io_la_oenb[44] 0
*RES
1 la_oenb[44] *646:io_la_oenb[44] 12.2025 
*END

*D_NET *467 0.00126454
*CONN
*P la_oenb[45] I
*I *646:io_la_oenb[45] I *D CaravelTopLevel
*CAP
1 la_oenb[45] 0.000632269
2 *646:io_la_oenb[45] 0.000632269
*RES
1 la_oenb[45] *646:io_la_oenb[45] 11.5125 
*END

*D_NET *468 0.001152
*CONN
*P la_oenb[46] I
*I *646:io_la_oenb[46] I *D CaravelTopLevel
*CAP
1 la_oenb[46] 0.000576001
2 *646:io_la_oenb[46] 0.000576001
*RES
1 la_oenb[46] *646:io_la_oenb[46] 10.4775 
*END

*D_NET *469 0.00118951
*CONN
*P la_oenb[47] I
*I *646:io_la_oenb[47] I *D CaravelTopLevel
*CAP
1 la_oenb[47] 0.000594757
2 *646:io_la_oenb[47] 0.000594757
*RES
1 la_oenb[47] *646:io_la_oenb[47] 10.8225 
*END

*D_NET *470 0.00137079
*CONN
*P la_oenb[48] I
*I *646:io_la_oenb[48] I *D CaravelTopLevel
*CAP
1 la_oenb[48] 0.000685394
2 *646:io_la_oenb[48] 0.000685394
*RES
1 la_oenb[48] *646:io_la_oenb[48] 12.4725 
*END

*D_NET *471 0.00139386
*CONN
*P la_oenb[49] I
*I *646:io_la_oenb[49] I *D CaravelTopLevel
*CAP
1 la_oenb[49] 0.000696931
2 *646:io_la_oenb[49] 0.000696931
3 la_data_out[49] *646:io_la_oenb[49] 0
*RES
1 la_oenb[49] *646:io_la_oenb[49] 12.6525 
*END

*D_NET *472 0.00905734
*CONN
*P la_oenb[4] I
*I *646:io_la_oenb[4] I *D CaravelTopLevel
*CAP
1 la_oenb[4] 0.00188169
2 *646:io_la_oenb[4] 0.00188169
3 la_data_out[6] *646:io_la_oenb[4] 0.00158785
4 *646:io_la_data_in[4] *646:io_la_oenb[4] 0.00315983
5 *646:io_la_data_in[6] *646:io_la_oenb[4] 0.000546273
*RES
1 la_oenb[4] *646:io_la_oenb[4] 18.7152 
*END

*D_NET *473 0.00150457
*CONN
*P la_oenb[50] I
*I *646:io_la_oenb[50] I *D CaravelTopLevel
*CAP
1 la_oenb[50] 0.000752285
2 *646:io_la_oenb[50] 0.000752285
3 *646:io_la_data_in[51] *646:io_la_oenb[50] 0
*RES
1 la_oenb[50] *646:io_la_oenb[50] 13.5825 
*END

*D_NET *474 0.00157809
*CONN
*P la_oenb[51] I
*I *646:io_la_oenb[51] I *D CaravelTopLevel
*CAP
1 la_oenb[51] 0.000789045
2 *646:io_la_oenb[51] 0.000789045
3 *646:io_la_data_in[52] *646:io_la_oenb[51] 0
*RES
1 la_oenb[51] *646:io_la_oenb[51] 14.4825 
*END

*D_NET *475 0.00197042
*CONN
*P la_oenb[52] I
*I *646:io_la_oenb[52] I *D CaravelTopLevel
*CAP
1 la_oenb[52] 0.000956848
2 *646:io_la_oenb[52] 0.000956848
3 la_data_out[52] *646:io_la_oenb[52] 4.55864e-06
4 *646:io_la_data_in[53] *646:io_la_oenb[52] 5.21698e-05
*RES
1 la_oenb[52] *646:io_la_oenb[52] 13.2964 
*END

*D_NET *476 0.00232836
*CONN
*P la_oenb[53] I
*I *646:io_la_oenb[53] I *D CaravelTopLevel
*CAP
1 la_oenb[53] 0.000994369
2 *646:io_la_oenb[53] 0.000994369
3 la_data_out[53] *646:io_la_oenb[53] 0.000220209
4 *646:io_la_data_in[54] *646:io_la_oenb[53] 0.000119417
*RES
1 la_oenb[53] *646:io_la_oenb[53] 12.6693 
*END

*D_NET *477 0.00221784
*CONN
*P la_oenb[54] I
*I *646:io_la_oenb[54] I *D CaravelTopLevel
*CAP
1 la_oenb[54] 0.000938468
2 *646:io_la_oenb[54] 0.000938468
3 la_data_out[54] *646:io_la_oenb[54] 0.000157868
4 *646:io_la_data_in[55] *646:io_la_oenb[54] 0.000183038
*RES
1 la_oenb[54] *646:io_la_oenb[54] 13.5878 
*END

*D_NET *478 0.00239896
*CONN
*P la_oenb[55] I
*I *646:io_la_oenb[55] I *D CaravelTopLevel
*CAP
1 la_oenb[55] 0.000961107
2 *646:io_la_oenb[55] 0.000961107
3 la_data_out[55] *646:io_la_oenb[55] 0.000300092
4 la_data_out[56] *646:io_la_oenb[55] 0
5 *646:io_la_data_in[55] *646:io_la_oenb[55] 0
6 *646:io_la_data_in[56] *646:io_la_oenb[55] 0.000176649
*RES
1 la_oenb[55] *646:io_la_oenb[55] 13.4758 
*END

*D_NET *479 0.00252134
*CONN
*P la_oenb[56] I
*I *646:io_la_oenb[56] I *D CaravelTopLevel
*CAP
1 la_oenb[56] 0.00104934
2 *646:io_la_oenb[56] 0.00104934
3 la_data_out[56] *646:io_la_oenb[56] 0.000138904
4 la_data_out[57] *646:io_la_oenb[56] 4.55864e-06
5 *646:io_la_data_in[57] *646:io_la_oenb[56] 0.000279197
*RES
1 la_oenb[56] *646:io_la_oenb[56] 13.8791 
*END

*D_NET *480 0.00311024
*CONN
*P la_oenb[57] I
*I *646:io_la_oenb[57] I *D CaravelTopLevel
*CAP
1 la_oenb[57] 0.00108031
2 *646:io_la_oenb[57] 0.00108031
3 *646:io_la_oenb[57] *646:io_la_oenb[58] 0
4 la_data_out[57] *646:io_la_oenb[57] 0.000459859
5 la_data_out[58] *646:io_la_oenb[57] 2.38557e-05
6 *646:io_la_data_in[58] *646:io_la_oenb[57] 0.000465897
*RES
1 la_oenb[57] *646:io_la_oenb[57] 14.0539 
*END

*D_NET *481 0.00321008
*CONN
*P la_oenb[58] I
*I *646:io_la_oenb[58] I *D CaravelTopLevel
*CAP
1 la_oenb[58] 0.0010723
2 *646:io_la_oenb[58] 0.0010723
3 la_data_out[58] *646:io_la_oenb[58] 0.000201512
4 la_data_out[59] *646:io_la_oenb[58] 4.78215e-05
5 *646:io_la_data_in[58] *646:io_la_oenb[58] 0.000222979
6 *646:io_la_data_in[59] *646:io_la_oenb[58] 0.000593166
7 *646:io_la_oenb[57] *646:io_la_oenb[58] 0
*RES
1 la_oenb[58] *646:io_la_oenb[58] 13.3685 
*END

*D_NET *482 0.00322307
*CONN
*P la_oenb[59] I
*I *646:io_la_oenb[59] I *D CaravelTopLevel
*CAP
1 la_oenb[59] 0.00110445
2 *646:io_la_oenb[59] 0.00110445
3 la_data_out[59] *646:io_la_oenb[59] 0.000659567
4 *646:io_la_data_in[59] *646:io_la_oenb[59] 8.26226e-05
5 *646:io_la_data_in[60] *646:io_la_oenb[59] 0.000271985
*RES
1 la_oenb[59] *646:io_la_oenb[59] 14.3452 
*END

*D_NET *483 0.00718177
*CONN
*P la_oenb[5] I
*I *646:io_la_oenb[5] I *D CaravelTopLevel
*CAP
1 la_oenb[5] 0.00241125
2 *646:io_la_oenb[5] 9.03605e-05
3 *483:13 0.00250161
4 *483:13 *646:io_la_oenb[7] 0.000943482
5 la_data_out[4] *483:13 0.000405184
6 la_data_out[8] *483:13 0
7 *646:io_la_data_in[7] *483:13 0.00040557
8 *646:io_la_oenb[2] *483:13 0
9 *333:13 *483:13 0.000424327
*RES
1 la_oenb[5] *483:13 49.6525 
2 *483:13 *646:io_la_oenb[5] 1.26 
*END

*D_NET *484 0.00315183
*CONN
*P la_oenb[60] I
*I *646:io_la_oenb[60] I *D CaravelTopLevel
*CAP
1 la_oenb[60] 0.00133189
2 *646:io_la_oenb[60] 0.00133189
3 *646:io_la_oenb[60] *646:io_la_oenb[61] 0
4 la_data_out[60] *646:io_la_oenb[60] 0.000488058
5 la_data_out[61] *646:io_la_oenb[60] 0
*RES
1 la_oenb[60] *646:io_la_oenb[60] 13.3532 
*END

*D_NET *485 0.00339543
*CONN
*P la_oenb[61] I
*I *646:io_la_oenb[61] I *D CaravelTopLevel
*CAP
1 la_oenb[61] 0.00126976
2 *646:io_la_oenb[61] 0.00126976
3 la_data_out[61] *646:io_la_oenb[61] 0.00085592
4 *646:io_la_oenb[60] *646:io_la_oenb[61] 0
*RES
1 la_oenb[61] *646:io_la_oenb[61] 14.6366 
*END

*D_NET *486 0.00424724
*CONN
*P la_oenb[62] I
*I *646:io_la_oenb[62] I *D CaravelTopLevel
*CAP
1 la_oenb[62] 0.00115077
2 *646:io_la_oenb[62] 0.00115077
3 *646:io_la_oenb[62] *646:io_la_oenb[63] 0.000154222
4 la_data_out[62] *646:io_la_oenb[62] 0.0010596
5 *646:io_la_data_in[62] *646:io_la_oenb[62] 0.000564933
6 *646:io_la_data_in[63] *646:io_la_oenb[62] 0.000166942
7 *646:io_la_data_in[64] *646:io_la_oenb[62] 0
*RES
1 la_oenb[62] *646:io_la_oenb[62] 13.6445 
*END

*D_NET *487 0.00440917
*CONN
*P la_oenb[63] I
*I *646:io_la_oenb[63] I *D CaravelTopLevel
*CAP
1 la_oenb[63] 0.00118234
2 *646:io_la_oenb[63] 0.00118234
3 *646:io_la_oenb[63] *646:io_la_oenb[64] 0.000273161
4 la_data_out[64] *646:io_la_oenb[63] 0.000731696
5 *646:io_la_data_in[63] *646:io_la_oenb[63] 0.000633379
6 *646:io_la_data_in[64] *646:io_la_oenb[63] 0.000252042
7 *646:io_la_oenb[62] *646:io_la_oenb[63] 0.000154222
*RES
1 la_oenb[63] *646:io_la_oenb[63] 13.7668 
*END

*D_NET *488 0.00493926
*CONN
*P la_oenb[64] I
*I *646:io_la_oenb[64] I *D CaravelTopLevel
*CAP
1 la_oenb[64] 0.00106775
2 *646:io_la_oenb[64] 0.00106775
3 la_data_out[64] *646:io_la_oenb[64] 0.000341079
4 la_data_out[65] *646:io_la_oenb[64] 0.000845347
5 *646:io_la_data_in[65] *646:io_la_oenb[64] 0.00130456
6 *646:io_la_data_in[66] *646:io_la_oenb[64] 3.96112e-05
7 *646:io_la_oenb[63] *646:io_la_oenb[64] 0.000273161
*RES
1 la_oenb[64] *646:io_la_oenb[64] 14.4516 
*END

*D_NET *489 0.00523504
*CONN
*P la_oenb[65] I
*I *646:io_la_oenb[65] I *D CaravelTopLevel
*CAP
1 la_oenb[65] 0.00101438
2 *646:io_la_oenb[65] 0.00101438
3 *646:io_la_oenb[65] *646:io_la_oenb[66] 0.000465732
4 la_data_out[64] *646:io_la_oenb[65] 1.97029e-06
5 la_data_out[65] *646:io_la_oenb[65] 0.00133671
6 la_data_out[66] *646:io_la_oenb[65] 1.74774e-05
7 *646:io_la_data_in[66] *646:io_la_oenb[65] 0.00138439
*RES
1 la_oenb[65] *646:io_la_oenb[65] 14.1107 
*END

*D_NET *490 0.00569068
*CONN
*P la_oenb[66] I
*I *646:io_la_oenb[66] I *D CaravelTopLevel
*CAP
1 la_oenb[66] 0.00110087
2 *646:io_la_oenb[66] 0.00110087
3 la_data_out[66] *646:io_la_oenb[66] 0.00153308
4 la_data_out[67] *646:io_la_oenb[66] 0.00105427
5 *646:io_la_data_in[66] *646:io_la_oenb[66] 0.00025235
6 *646:io_la_data_in[67] *646:io_la_oenb[66] 0.00010767
7 *646:io_la_data_in[68] *646:io_la_oenb[66] 7.58457e-05
8 *646:io_la_oenb[65] *646:io_la_oenb[66] 0.000465732
*RES
1 la_oenb[66] *646:io_la_oenb[66] 14.7412 
*END

*D_NET *491 0.00485456
*CONN
*P la_oenb[67] I
*I *646:io_la_oenb[67] I *D CaravelTopLevel
*CAP
1 la_oenb[67] 0.00148026
2 *646:io_la_oenb[67] 0.00148026
3 la_data_out[66] *646:io_la_oenb[67] 2.01251e-05
4 la_data_out[67] *646:io_la_oenb[67] 0.00152013
5 la_data_out[68] *646:io_la_oenb[67] 0.000166942
6 *646:io_la_data_in[69] *646:io_la_oenb[67] 0.000186845
*RES
1 la_oenb[67] *646:io_la_oenb[67] 14.402 
*END

*D_NET *492 0.00612966
*CONN
*P la_oenb[68] I
*I *646:io_la_oenb[68] I *D CaravelTopLevel
*CAP
1 la_oenb[68] 0.00108383
2 *646:io_la_oenb[68] 0.00108383
3 *646:io_la_oenb[68] *646:io_la_oenb[69] 0.000773847
4 la_data_out[68] *646:io_la_oenb[68] 0.00163031
5 *646:io_la_data_in[68] *646:io_la_oenb[68] 0.00114329
6 *646:io_la_data_in[69] *646:io_la_oenb[68] 0.000102886
7 *646:io_la_data_in[70] *646:io_la_oenb[68] 0.000311675
*RES
1 la_oenb[68] *646:io_la_oenb[68] 15.0343 
*END

*D_NET *493 0.00516421
*CONN
*P la_oenb[69] I
*I *646:io_la_oenb[69] I *D CaravelTopLevel
*CAP
1 la_oenb[69] 0.00132491
2 *646:io_la_oenb[69] 0.00132491
3 *646:io_la_oenb[69] *646:io_la_oenb[70] 0.000737633
4 la_data_out[70] *646:io_la_oenb[69] 0.000665162
5 *646:io_la_data_in[70] *646:io_la_oenb[69] 0.000337758
6 *646:io_la_oenb[68] *646:io_la_oenb[69] 0.000773847
*RES
1 la_oenb[69] *646:io_la_oenb[69] 16.626 
*END

*D_NET *494 0.00944068
*CONN
*P la_oenb[6] I
*I *646:io_la_oenb[6] I *D CaravelTopLevel
*CAP
1 la_oenb[6] 0.00270811
2 *646:io_la_oenb[6] 0.00270811
3 la_data_out[4] *646:io_la_oenb[6] 0.000170064
4 la_data_out[8] *646:io_la_oenb[6] 0.000281617
5 *646:io_la_data_in[4] *646:io_la_oenb[6] 0.000125669
6 *646:io_la_data_in[7] *646:io_la_oenb[6] 0.0034471
7 *646:io_la_oenb[3] *646:io_la_oenb[6] 0
*RES
1 la_oenb[6] *646:io_la_oenb[6] 17.2628 
*END

*D_NET *495 0.00655083
*CONN
*P la_oenb[70] I
*I *646:io_la_oenb[70] I *D CaravelTopLevel
*CAP
1 la_oenb[70] 0.00122689
2 *646:io_la_oenb[70] 0.00122689
3 la_data_out[70] *646:io_la_oenb[70] 6.06297e-05
4 la_data_out[71] *646:io_la_oenb[70] 0.0013363
5 *646:io_la_data_in[70] *646:io_la_oenb[70] 0.00121055
6 *646:io_la_data_in[71] *646:io_la_oenb[70] 0.000324728
7 *646:io_la_data_in[72] *646:io_la_oenb[70] 0.000427218
8 *646:io_la_oenb[69] *646:io_la_oenb[70] 0.000737633
*RES
1 la_oenb[70] *646:io_la_oenb[70] 16.1091 
*END

*D_NET *496 0.00528429
*CONN
*P la_oenb[71] I
*I *646:io_la_oenb[71] I *D CaravelTopLevel
*CAP
1 la_oenb[71] 0.0015699
2 *646:io_la_oenb[71] 0.0015699
3 *646:io_la_data_in[70] *646:io_la_oenb[71] 6.57849e-05
4 *646:io_la_data_in[71] *646:io_la_oenb[71] 0.00144572
5 *646:io_la_data_in[72] *646:io_la_oenb[71] 0.000633004
*RES
1 la_oenb[71] *646:io_la_oenb[71] 14.9847 
*END

*D_NET *497 0.00584287
*CONN
*P la_oenb[72] I
*I *646:io_la_oenb[72] I *D CaravelTopLevel
*CAP
1 la_oenb[72] 0.00171676
2 *646:io_la_oenb[72] 0.00171676
3 *646:io_la_oenb[72] *646:io_la_oenb[73] 0.00014559
4 *646:io_la_oenb[72] *646:io_la_oenb[74] 0
5 la_data_out[72] *646:io_la_oenb[72] 0.00202912
6 la_data_out[74] *646:io_la_oenb[72] 0.000234646
*RES
1 la_oenb[72] *646:io_la_oenb[72] 17.147 
*END

*D_NET *498 0.00731216
*CONN
*P la_oenb[73] I
*I *646:io_la_oenb[73] I *D CaravelTopLevel
*CAP
1 la_oenb[73] 0.00110715
2 *646:io_la_oenb[73] 0.00110715
3 la_data_out[72] *646:io_la_oenb[73] 0.000653744
4 la_data_out[73] *646:io_la_oenb[73] 0.000102886
5 la_data_out[74] *646:io_la_oenb[73] 0.00173386
6 *646:io_la_data_in[73] *646:io_la_oenb[73] 0.00164943
7 *646:io_la_data_in[75] *646:io_la_oenb[73] 0.000812361
8 *646:io_la_oenb[72] *646:io_la_oenb[73] 0.00014559
*RES
1 la_oenb[73] *646:io_la_oenb[73] 16.3018 
*END

*D_NET *499 0.00635494
*CONN
*P la_oenb[74] I
*I *646:io_la_oenb[74] I *D CaravelTopLevel
*CAP
1 la_oenb[74] 0.00140829
2 *646:io_la_oenb[74] 0.00140829
3 la_data_out[73] *646:io_la_oenb[74] 0.000767365
4 *646:io_la_data_in[74] *646:io_la_oenb[74] 0.00171496
5 *646:io_la_data_in[75] *646:io_la_oenb[74] 0.00105604
6 *646:io_la_oenb[72] *646:io_la_oenb[74] 0
*RES
1 la_oenb[74] *646:io_la_oenb[74] 15.4508 
*END

*D_NET *500 0.00784453
*CONN
*P la_oenb[75] I
*I *646:io_la_oenb[75] I *D CaravelTopLevel
*CAP
1 la_oenb[75] 0.00128167
2 *646:io_la_oenb[75] 0.00128167
3 *646:io_la_oenb[75] *646:io_la_oenb[77] 3.27507e-05
4 la_data_out[74] *646:io_la_oenb[75] 0.000622059
5 la_data_out[75] *646:io_la_oenb[75] 0.00200858
6 la_data_out[76] *646:io_la_oenb[75] 0.00192643
7 *646:io_la_data_in[75] *646:io_la_oenb[75] 0.000100054
8 *646:io_la_data_in[76] *646:io_la_oenb[75] 0.000591328
*RES
1 la_oenb[75] *646:io_la_oenb[75] 17.8724 
*END

*D_NET *501 0.00678712
*CONN
*P la_oenb[76] I
*I *646:io_la_oenb[76] I *D CaravelTopLevel
*CAP
1 la_oenb[76] 0.00145314
2 *646:io_la_oenb[76] 0.00145314
3 *646:io_la_oenb[76] *646:io_la_oenb[77] 0.00152588
4 *646:io_la_oenb[76] *646:io_la_oenb[78] 0
5 la_data_out[76] *646:io_la_oenb[76] 0.00110047
6 la_data_out[77] *646:io_la_oenb[76] 0.000256224
7 la_data_out[78] *646:io_la_oenb[76] 0.000610703
8 *646:io_la_data_in[75] *646:io_la_oenb[76] 0.000387558
9 *646:io_la_data_in[79] *646:io_la_oenb[76] 0
*RES
1 la_oenb[76] *646:io_la_oenb[76] 15.6896 
*END

*D_NET *502 0.00775492
*CONN
*P la_oenb[77] I
*I *646:io_la_oenb[77] I *D CaravelTopLevel
*CAP
1 la_oenb[77] 0.00130973
2 *646:io_la_oenb[77] 0.00130973
3 *646:io_la_oenb[77] *646:io_la_oenb[79] 0.000273161
4 la_data_out[77] *646:io_la_oenb[77] 0.0025065
5 la_data_out[78] *646:io_la_oenb[77] 0.000797161
6 *646:io_la_oenb[75] *646:io_la_oenb[77] 3.27507e-05
7 *646:io_la_oenb[76] *646:io_la_oenb[77] 0.00152588
*RES
1 la_oenb[77] *646:io_la_oenb[77] 15.9169 
*END

*D_NET *503 0.0052706
*CONN
*P la_oenb[78] I
*I *646:io_la_oenb[78] I *D CaravelTopLevel
*CAP
1 la_oenb[78] 0.00237633
2 *646:io_la_oenb[78] 0.00237633
3 *646:io_la_oenb[78] *646:io_la_oenb[80] 0.00026015
4 la_data_out[76] *646:io_la_oenb[78] 0
5 la_data_out[80] *646:io_la_oenb[78] 0.000257795
6 *646:io_la_data_in[77] *646:io_la_oenb[78] 0
7 *646:io_la_data_in[79] *646:io_la_oenb[78] 0
8 *646:io_la_data_in[81] *646:io_la_oenb[78] 0
9 *646:io_la_oenb[76] *646:io_la_oenb[78] 0
*RES
1 la_oenb[78] *646:io_la_oenb[78] 16.3401 
*END

*D_NET *504 0.00719398
*CONN
*P la_oenb[79] I
*I *646:io_la_oenb[79] I *D CaravelTopLevel
*CAP
1 la_oenb[79] 0.00183149
2 *646:io_la_oenb[79] 0.00183149
3 la_data_out[78] *646:io_la_oenb[79] 6.32442e-05
4 la_data_out[79] *646:io_la_oenb[79] 0
5 *646:io_la_data_in[80] *646:io_la_oenb[79] 0.00272987
6 *646:io_la_data_in[82] *646:io_la_oenb[79] 0.000464712
7 *646:io_la_oenb[77] *646:io_la_oenb[79] 0.000273161
*RES
1 la_oenb[79] *646:io_la_oenb[79] 16.2083 
*END

*D_NET *505 0.00679437
*CONN
*P la_oenb[7] I
*I *646:io_la_oenb[7] I *D CaravelTopLevel
*CAP
1 la_oenb[7] 0.00221317
2 *646:io_la_oenb[7] 0.00221317
3 la_data_out[8] *646:io_la_oenb[7] 0.000686825
4 *646:io_la_data_in[10] *646:io_la_oenb[7] 0.000108453
5 *646:io_la_data_in[5] *646:io_la_oenb[7] 9.65324e-05
6 *646:io_la_data_in[7] *646:io_la_oenb[7] 0.00035332
7 *646:io_la_data_in[8] *646:io_la_oenb[7] 0.00017941
8 *483:13 *646:io_la_oenb[7] 0.000943482
*RES
1 la_oenb[7] *646:io_la_oenb[7] 49.9075 
*END

*D_NET *506 0.00736984
*CONN
*P la_oenb[80] I
*I *646:io_la_oenb[80] I *D CaravelTopLevel
*CAP
1 la_oenb[80] 0.00145956
2 *646:io_la_oenb[80] 0.00145956
3 la_data_out[78] *646:io_la_oenb[80] 0
4 la_data_out[80] *646:io_la_oenb[80] 0.00158369
5 la_data_out[81] *646:io_la_oenb[80] 0.00229599
6 la_data_out[82] *646:io_la_oenb[80] 0.000205448
7 *646:io_la_data_in[81] *646:io_la_oenb[80] 0
8 *646:io_la_data_in[83] *646:io_la_oenb[80] 0.000105446
9 *646:io_la_oenb[78] *646:io_la_oenb[80] 0.00026015
*RES
1 la_oenb[80] *646:io_la_oenb[80] 17.1466 
*END

*D_NET *507 0.00714082
*CONN
*P la_oenb[81] I
*I *646:io_la_oenb[81] I *D CaravelTopLevel
*CAP
1 la_oenb[81] 0.00202113
2 *646:io_la_oenb[81] 0.00202113
3 *646:io_la_oenb[81] *646:io_la_oenb[83] 0.000125285
4 *646:io_la_data_in[81] *646:io_la_oenb[81] 0.000101442
5 *646:io_la_data_in[82] *646:io_la_oenb[81] 0.00287184
*RES
1 la_oenb[81] *646:io_la_oenb[81] 19.2016 
*END

*D_NET *508 0.00815288
*CONN
*P la_oenb[82] I
*I *646:io_la_oenb[82] I *D CaravelTopLevel
*CAP
1 la_oenb[82] 0.00180388
2 *646:io_la_oenb[82] 0.00180388
3 la_data_out[83] *646:io_la_oenb[82] 0.00254475
4 la_data_out[85] *646:io_la_oenb[82] 0
5 *646:io_la_data_in[84] *646:io_la_oenb[82] 0.00163567
6 *646:io_la_data_in[85] *646:io_la_oenb[82] 0.000364697
*RES
1 la_oenb[82] *646:io_la_oenb[82] 16.6161 
*END

*D_NET *509 0.00712646
*CONN
*P la_oenb[83] I
*I *646:io_la_oenb[83] I *D CaravelTopLevel
*CAP
1 la_oenb[83] 0.00253089
2 *646:io_la_oenb[83] 0.00253089
3 *646:io_la_oenb[83] *646:io_la_oenb[84] 0.000203813
4 *646:io_la_oenb[83] *646:io_la_oenb[85] 0.000814369
5 la_data_out[81] *646:io_la_oenb[83] 0
6 *646:io_la_data_in[82] *646:io_la_oenb[83] 0.000113158
7 *646:io_la_data_in[85] *646:io_la_oenb[83] 0.000808053
8 *646:io_la_oenb[81] *646:io_la_oenb[83] 0.000125285
*RES
1 la_oenb[83] *646:io_la_oenb[83] 49.6225 
*END

*D_NET *510 0.00829938
*CONN
*P la_oenb[84] I
*I *646:io_la_oenb[84] I *D CaravelTopLevel
*CAP
1 la_oenb[84] 0.00206775
2 *646:io_la_oenb[84] 0.00206775
3 la_data_out[82] *646:io_la_oenb[84] 0
4 la_data_out[84] *646:io_la_oenb[84] 0
5 *646:io_la_data_in[82] *646:io_la_oenb[84] 0
6 *646:io_la_data_in[83] *646:io_la_oenb[84] 0.000681852
7 *646:io_la_data_in[85] *646:io_la_oenb[84] 0.00327823
8 *646:io_la_oenb[83] *646:io_la_oenb[84] 0.000203813
*RES
1 la_oenb[84] *646:io_la_oenb[84] 20.8441 
*END

*D_NET *511 0.00737624
*CONN
*P la_oenb[85] I
*I *646:io_la_oenb[85] I *D CaravelTopLevel
*CAP
1 la_oenb[85] 0.0023881
2 *646:io_la_oenb[85] 0.0023881
3 *646:io_la_oenb[85] *646:io_la_oenb[86] 0.000614026
4 *646:io_la_oenb[85] *513:13 0.000737766
5 la_data_out[83] *646:io_la_oenb[85] 0
6 *646:io_la_data_in[83] *646:io_la_oenb[85] 0
7 *646:io_la_data_in[85] *646:io_la_oenb[85] 0.00043387
8 *646:io_la_oenb[83] *646:io_la_oenb[85] 0.000814369
*RES
1 la_oenb[85] *646:io_la_oenb[85] 49.3675 
*END

*D_NET *512 0.00846235
*CONN
*P la_oenb[86] I
*I *646:io_la_oenb[86] I *D CaravelTopLevel
*CAP
1 la_oenb[86] 0.00281882
2 *646:io_la_oenb[86] 0.00281882
3 *646:io_la_oenb[86] *513:13 0.0010787
4 la_data_out[84] *646:io_la_oenb[86] 0
5 *646:io_la_data_in[84] *646:io_la_oenb[86] 0
6 *646:io_la_data_in[85] *646:io_la_oenb[86] 0.00113198
7 *646:io_la_data_in[87] *646:io_la_oenb[86] 0
8 *646:io_la_oenb[85] *646:io_la_oenb[86] 0.000614026
*RES
1 la_oenb[86] *646:io_la_oenb[86] 20.1922 
*END

*D_NET *513 0.00723757
*CONN
*P la_oenb[87] I
*I *646:io_la_oenb[87] I *D CaravelTopLevel
*CAP
1 la_oenb[87] 0.0019792
2 *646:io_la_oenb[87] 0.000711716
3 *513:13 0.00269092
4 la_data_out[85] *646:io_la_oenb[87] 0
5 *646:io_la_data_in[85] *646:io_la_oenb[87] 3.92698e-05
6 *646:io_la_oenb[85] *513:13 0.000737766
7 *646:io_la_oenb[86] *513:13 0.0010787
*RES
1 la_oenb[87] *513:13 40.27 
2 *513:13 *646:io_la_oenb[87] 12.4575 
*END

*D_NET *514 0.00667271
*CONN
*P la_oenb[88] I
*I *646:io_la_oenb[88] I *D CaravelTopLevel
*CAP
1 la_oenb[88] 0.00213668
2 *646:io_la_oenb[88] 0.000417294
3 *514:13 0.00255397
4 la_data_out[88] *646:io_la_oenb[88] 0
5 la_data_out[88] *514:13 0
6 *646:io_la_data_in[86] *646:io_la_oenb[88] 0
7 *389:13 *514:13 0.00156476
*RES
1 la_oenb[88] *514:13 45.385 
2 *514:13 *646:io_la_oenb[88] 6.8325 
*END

*D_NET *515 0.010424
*CONN
*P la_oenb[89] I
*I *646:io_la_oenb[89] I *D CaravelTopLevel
*CAP
1 la_oenb[89] 0.00137912
2 *646:io_la_oenb[89] 0.00137912
3 *646:io_la_oenb[89] *646:io_la_oenb[92] 0.000165521
4 la_data_out[88] *646:io_la_oenb[89] 0.000144982
5 la_data_out[89] *646:io_la_oenb[89] 0.000259833
6 la_data_out[92] *646:io_la_oenb[89] 0.000222897
7 *646:io_la_data_in[87] *646:io_la_oenb[89] 7.01681e-05
8 *646:io_la_data_in[89] *646:io_la_oenb[89] 0.00314686
9 *646:io_la_data_in[90] *646:io_la_oenb[89] 0.00365548
*RES
1 la_oenb[89] *646:io_la_oenb[89] 18.7735 
*END

*D_NET *516 0.00652025
*CONN
*P la_oenb[8] I
*I *646:io_la_oenb[8] I *D CaravelTopLevel
*CAP
1 la_oenb[8] 0.00280951
2 *646:io_la_oenb[8] 0.00280951
3 *646:io_la_oenb[8] *646:io_la_oenb[9] 0.000385839
4 *646:io_la_data_in[11] *646:io_la_oenb[8] 0
5 *646:io_la_oenb[10] *646:io_la_oenb[8] 0.000515392
*RES
1 la_oenb[8] *646:io_la_oenb[8] 19.9591 
*END

*D_NET *517 0.00902386
*CONN
*P la_oenb[90] I
*I *646:io_la_oenb[90] I *D CaravelTopLevel
*CAP
1 la_oenb[90] 0.00138069
2 *646:io_la_oenb[90] 0.000501805
3 *517:11 0.00188249
4 *517:11 *519:13 0.00137403
5 *646:io_la_data_in[88] *646:io_la_oenb[90] 0
6 *389:13 *517:11 0.00341777
7 *392:13 *517:11 0.000467068
*RES
1 la_oenb[90] *517:11 44.95 
2 *517:11 *646:io_la_oenb[90] 8.0325 
*END

*D_NET *518 0.00874511
*CONN
*P la_oenb[91] I
*I *646:io_la_oenb[91] I *D CaravelTopLevel
*CAP
1 la_oenb[91] 0.00245811
2 *646:io_la_oenb[91] 0.00245811
3 la_data_out[91] *646:io_la_oenb[91] 0.00382888
4 la_data_out[92] *646:io_la_oenb[91] 0
*RES
1 la_oenb[91] *646:io_la_oenb[91] 19.0648 
*END

*D_NET *519 0.00937154
*CONN
*P la_oenb[92] I
*I *646:io_la_oenb[92] I *D CaravelTopLevel
*CAP
1 la_oenb[92] 0.00118146
2 *646:io_la_oenb[92] 0.000445548
3 *519:13 0.001627
4 *519:13 *646:io_la_oenb[95] 0.000142294
5 *519:13 *520:11 0.00284795
6 la_data_out[92] *519:13 0
7 *646:io_la_data_in[90] *646:io_la_oenb[92] 0
8 *646:io_la_oenb[89] *646:io_la_oenb[92] 0.000165521
9 *392:13 *519:13 0.00158774
10 *517:11 *519:13 0.00137403
*RES
1 la_oenb[92] *519:13 46.18 
2 *519:13 *646:io_la_oenb[92] 8.6325 
*END

*D_NET *520 0.00821749
*CONN
*P la_oenb[93] I
*I *646:io_la_oenb[93] I *D CaravelTopLevel
*CAP
1 la_oenb[93] 0.00181896
2 *646:io_la_oenb[93] 0.000472248
3 *520:11 0.00229121
4 *520:11 *522:17 0.00021565
5 *646:io_la_data_in[97] *520:11 0.00016704
6 *392:13 *646:io_la_oenb[93] 0
7 *392:13 *520:11 0.000404428
8 *519:13 *520:11 0.00284795
*RES
1 la_oenb[93] *520:11 48.235 
2 *520:11 *646:io_la_oenb[93] 7.8525 
*END

*D_NET *521 0.00971972
*CONN
*P la_oenb[94] I
*I *646:io_la_oenb[94] I *D CaravelTopLevel
*CAP
1 la_oenb[94] 0.00265319
2 *646:io_la_oenb[94] 0.00265319
3 *646:io_la_oenb[94] *646:io_la_oenb[97] 0
4 *646:io_la_data_in[94] *646:io_la_oenb[94] 0.00347141
5 *646:io_la_data_in[95] *646:io_la_oenb[94] 0.000488865
6 *646:io_la_data_in[98] *646:io_la_oenb[94] 0.000453072
*RES
1 la_oenb[94] *646:io_la_oenb[94] 20.572 
*END

*D_NET *522 0.00778445
*CONN
*P la_oenb[95] I
*I *646:io_la_oenb[95] I *D CaravelTopLevel
*CAP
1 la_oenb[95] 0.00225903
2 *646:io_la_oenb[95] 0.000510285
3 *522:17 0.00276932
4 la_data_out[92] *646:io_la_oenb[95] 0
5 la_data_out[95] *522:17 0
6 la_data_out[97] *522:17 0.000212546
7 *268:13 *522:17 0.00167532
8 *519:13 *646:io_la_oenb[95] 0.000142294
9 *520:11 *522:17 0.00021565
*RES
1 la_oenb[95] *522:17 48.31 
2 *522:17 *646:io_la_oenb[95] 9.4725 
*END

*D_NET *523 0.0107148
*CONN
*P la_oenb[96] I
*I *646:io_la_oenb[96] I *D CaravelTopLevel
*CAP
1 la_oenb[96] 0.00208044
2 *646:io_la_oenb[96] 0.00208044
3 la_data_out[96] *646:io_la_oenb[96] 0.00124235
4 la_data_out[98] *646:io_la_oenb[96] 0.00256695
5 *646:io_la_data_in[100] *646:io_la_oenb[96] 0.000298055
6 *646:io_la_data_in[95] *646:io_la_oenb[96] 0.00244654
7 *273:9 *646:io_la_oenb[96] 0
*RES
1 la_oenb[96] *646:io_la_oenb[96] 19.1712 
*END

*D_NET *524 0.0125496
*CONN
*P la_oenb[97] I
*I *646:io_la_oenb[97] I *D CaravelTopLevel
*CAP
1 la_oenb[97] 0.000873075
2 *646:io_la_oenb[97] 0.000590777
3 *524:13 0.00146385
4 *524:13 *525:17 0.00367829
5 la_data_out[94] *646:io_la_oenb[97] 0.000312244
6 la_data_out[95] *524:13 0.000736935
7 la_data_out[97] *524:13 0.000842058
8 *646:io_la_data_in[98] *646:io_la_oenb[97] 0
9 *646:io_la_oenb[100] *524:13 4.08846e-05
10 *646:io_la_oenb[94] *646:io_la_oenb[97] 0
11 *268:13 *524:13 0.00390899
12 *401:11 *524:13 0.000102528
*RES
1 la_oenb[97] *524:13 49.24 
2 *524:13 *646:io_la_oenb[97] 11.9475 
*END

*D_NET *525 0.0124797
*CONN
*P la_oenb[98] I
*I *646:io_la_oenb[98] I *D CaravelTopLevel
*CAP
1 la_oenb[98] 0.000196045
2 *646:io_la_oenb[98] 0.000653447
3 *525:17 0.00178534
4 *525:13 0.00132793
5 *525:17 *526:13 0.00344293
6 la_data_out[95] *525:17 0.000239807
7 la_data_out[97] *525:17 0.000559155
8 *646:io_la_data_in[95] *646:io_la_oenb[98] 0
9 *646:io_la_data_in[96] *525:17 0.00040565
10 *646:io_la_oenb[101] *525:17 0.000162741
11 *275:9 *525:13 2.83472e-05
12 *401:11 *525:17 0
13 *524:13 *525:17 0.00367829
*RES
1 la_oenb[98] *525:13 5.735 
2 *525:13 *525:17 46.955 
3 *525:17 *646:io_la_oenb[98] 11.1675 
*END

*D_NET *526 0.0116011
*CONN
*P la_oenb[99] I
*I *646:io_la_oenb[99] I *D CaravelTopLevel
*CAP
1 la_oenb[99] 0.00175687
2 *646:io_la_oenb[99] 0.000562564
3 *526:13 0.00231944
4 la_data_out[101] *526:13 0.000218017
5 la_data_out[96] *646:io_la_oenb[99] 0.000495229
6 la_data_out[97] *526:13 0.000697461
7 *646:io_la_oenb[101] *526:13 0.00087292
8 *275:11 *526:13 0.00123571
9 *401:11 *526:13 0
10 *525:17 *526:13 0.00344293
*RES
1 la_oenb[99] *526:13 49.585 
2 *526:13 *646:io_la_oenb[99] 12.4575 
*END

*D_NET *527 0.0063097
*CONN
*P la_oenb[9] I
*I *646:io_la_oenb[9] I *D CaravelTopLevel
*CAP
1 la_oenb[9] 0.00199459
2 *646:io_la_oenb[9] 0.00199459
3 la_data_out[10] *646:io_la_oenb[9] 0.00108142
4 la_data_out[11] *646:io_la_oenb[9] 0.000427591
5 la_data_out[7] *646:io_la_oenb[9] 0
6 *646:io_la_data_in[12] *646:io_la_oenb[9] 9.48304e-05
7 *646:io_la_data_in[9] *646:io_la_oenb[9] 0
8 *646:io_la_oenb[10] *646:io_la_oenb[9] 0.00033085
9 *646:io_la_oenb[8] *646:io_la_oenb[9] 0.000385839
*RES
1 la_oenb[9] *646:io_la_oenb[9] 18.016 
*END

*D_NET *528 0.0182878
*CONN
*P user_clock2 I
*I *646:io_user_clock2 I *D CaravelTopLevel
*CAP
1 user_clock2 0.000244099
2 *646:io_user_clock2 0.000507295
3 *528:11 0.00162787
4 *528:9 0.00136468
5 *528:11 *529:11 0.00719636
6 *528:11 *530:11 0.00689082
7 *646:io_la_data_in[123] *646:io_user_clock2 0
8 *302:11 *528:11 0.000456723
*RES
1 user_clock2 *528:9 6.29 
2 *528:9 *528:11 69.45 
3 *528:11 *646:io_user_clock2 10.1225 
*END

*D_NET *529 0.0142361
*CONN
*P user_irq[0] O
*I *646:io_user_irq[0] O *D CaravelTopLevel
*CAP
1 user_irq[0] 0.000214342
2 *646:io_user_irq[0] 0.000399102
3 *529:11 0.00282948
4 *529:9 0.00301424
5 user_irq[0] user_irq[1] 0
6 *529:9 *530:9 0
7 *529:11 *530:11 0.000341577
8 *646:io_la_data_in[123] *529:9 0.000241033
9 *528:11 *529:11 0.00719636
*RES
1 *646:io_user_irq[0] *529:9 9.8675 
2 *529:9 *529:11 70.485 
3 *529:11 user_irq[0] 5.75 
*END

*D_NET *530 0.0163288
*CONN
*P user_irq[1] O
*I *646:io_user_irq[1] O *D CaravelTopLevel
*CAP
1 user_irq[1] 0.000289026
2 *646:io_user_irq[1] 0.000416521
3 *530:11 0.00221066
4 *530:9 0.00233816
5 la_data_out[123] *530:9 0.000109626
6 user_irq[0] user_irq[1] 0
7 *646:io_la_data_in[123] *530:9 0
8 *302:11 *530:11 0.00373239
9 *528:11 *530:11 0.00689082
10 *529:9 *530:9 0
11 *529:11 *530:11 0.000341577
*RES
1 *646:io_user_irq[1] *530:9 9.3425 
2 *530:9 *530:11 70.485 
3 *530:11 user_irq[1] 7.07 
*END

*D_NET *531 0.0138188
*CONN
*P user_irq[2] O
*I *646:io_user_irq[2] O *D CaravelTopLevel
*CAP
1 user_irq[2] 0.0040668
2 *646:io_user_irq[2] 0.0040668
3 *646:io_la_data_in[127] user_irq[2] 0.00514061
4 *646:io_la_oenb[127] user_irq[2] 0.000544596
*RES
1 *646:io_user_irq[2] user_irq[2] 24.3717 
*END

*D_NET *540 0.0171724
*CONN
*P wb_clk_i I
*I *646:io_wb_clk_i I *D CaravelTopLevel
*CAP
1 wb_clk_i 0.00450025
2 *646:io_wb_clk_i 0.00450025
3 *646:io_wb_clk_i wbs_ack_o 0.00109454
4 *646:io_wb_clk_i wbs_dat_o[0] 0.00412064
5 *646:io_wb_clk_i *646:io_wb_rst_i 0
6 *646:io_wb_clk_i *646:io_wbs_adr_i[2] 0.000649066
7 *646:io_wb_clk_i *646:io_wbs_dat_i[0] 0
8 *646:io_wb_clk_i *575:9 0.00136388
9 *646:io_wb_clk_i *644:9 0.000943777
*RES
1 wb_clk_i *646:io_wb_clk_i 23.4974 
*END

*D_NET *541 0.0142734
*CONN
*P wb_rst_i I
*I *646:io_wb_rst_i I *D CaravelTopLevel
*CAP
1 wb_rst_i 0.0044178
2 *646:io_wb_rst_i 0.0044178
3 *646:io_wb_rst_i *646:io_wbs_dat_i[0] 0.00508807
4 *646:io_wb_rst_i *642:7 0.000349765
5 *646:io_wb_clk_i *646:io_wb_rst_i 0
*RES
1 wb_rst_i *646:io_wb_rst_i 24.3717 
*END

*D_NET *542 0.0138989
*CONN
*P wbs_ack_o O
*I *646:io_wbs_ack_o O *D CaravelTopLevel
*CAP
1 wbs_ack_o 0.00433562
2 *646:io_wbs_ack_o 0.00433562
3 wbs_ack_o wbs_dat_o[0] 0.0018753
4 wbs_ack_o *646:io_wbs_dat_i[2] 0.00159893
5 wbs_ack_o *587:9 0.000460946
6 wbs_ack_o *645:9 0.000197928
7 *646:io_wb_clk_i wbs_ack_o 0.00109454
*RES
1 *646:io_wbs_ack_o wbs_ack_o 24.9691 
*END

*D_NET *543 0.0141179
*CONN
*P wbs_adr_i[0] I
*I *646:io_wbs_adr_i[0] I *D CaravelTopLevel
*CAP
1 wbs_adr_i[0] 0.00404806
2 *646:io_wbs_adr_i[0] 0.00404806
3 *646:io_wbs_adr_i[0] *646:io_wbs_adr_i[1] 0.00598192
4 *646:io_wbs_adr_i[0] *646:io_wbs_adr_i[4] 3.98738e-05
5 *646:io_wbs_adr_i[0] *643:11 0
*RES
1 wbs_adr_i[0] *646:io_wbs_adr_i[0] 26.639 
*END

*D_NET *544 0.0160073
*CONN
*P wbs_adr_i[10] I
*I *646:io_wbs_adr_i[10] I *D CaravelTopLevel
*CAP
1 wbs_adr_i[10] 0.000549302
2 *646:io_wbs_adr_i[10] 0.000238881
3 *544:9 0.00133491
4 *544:7 0.00164533
5 *646:io_wbs_adr_i[10] wbs_dat_o[14] 0
6 *646:io_wbs_adr_i[10] *581:7 0
7 *544:7 wbs_dat_o[9] 0
8 *544:7 *646:io_wbs_dat_i[5] 0
9 *544:9 *646:io_wbs_adr_i[11] 0.000853392
10 *544:9 *646:io_wbs_adr_i[9] 0.000161545
11 *544:9 *546:9 0.00356451
12 *544:9 *577:9 0.00599014
13 *544:9 *605:9 0.00165977
14 *544:9 *609:11 9.55262e-06
*RES
1 wbs_adr_i[10] *544:7 11.615 
2 *544:7 *544:9 59.445 
3 *544:9 *646:io_wbs_adr_i[10] 4.0025 
*END

*D_NET *545 0.0199812
*CONN
*P wbs_adr_i[11] I
*I *646:io_wbs_adr_i[11] I *D CaravelTopLevel
*CAP
1 wbs_adr_i[11] 0.00495108
2 *646:io_wbs_adr_i[11] 0.00495108
3 *646:io_wbs_adr_i[11] *646:io_wbs_adr_i[14] 0
4 *646:io_wbs_adr_i[11] *646:io_wbs_adr_i[6] 0
5 *646:io_wbs_adr_i[11] *646:io_wbs_adr_i[9] 0.00386737
6 *646:io_wbs_adr_i[11] *646:io_wbs_dat_i[11] 0
7 *646:io_wbs_adr_i[11] *646:io_wbs_dat_i[6] 0.000366281
8 *646:io_wbs_adr_i[11] *546:9 0.000721144
9 *646:io_wbs_adr_i[11] *577:9 0.00216628
10 *646:io_wbs_adr_i[11] *581:9 0.000231771
11 *646:io_wbs_adr_i[11] *605:9 0.000202805
12 *646:io_wbs_adr_i[11] *607:13 0.000205162
13 *646:io_wbs_adr_i[11] *609:11 0.000534176
14 *646:io_wbs_adr_i[11] *610:11 0.000151497
15 *646:io_wbs_adr_i[11] *611:11 0.000639259
16 *646:io_wbs_adr_i[11] *613:11 0.00013988
17 *544:9 *646:io_wbs_adr_i[11] 0.000853392
*RES
1 wbs_adr_i[11] *646:io_wbs_adr_i[11] 21.4523 
*END

*D_NET *546 0.015734
*CONN
*P wbs_adr_i[12] I
*I *646:io_wbs_adr_i[12] I *D CaravelTopLevel
*CAP
1 wbs_adr_i[12] 0.00056993
2 *646:io_wbs_adr_i[12] 0.000146581
3 *546:9 0.001216
4 *546:7 0.00163934
5 *646:io_wbs_adr_i[12] *583:7 3.72952e-05
6 *546:9 wbs_dat_o[15] 0.000101386
7 *546:9 *577:9 0.000335451
8 *546:9 *582:9 0.00150396
9 *546:9 *609:11 0.000548904
10 *546:9 *611:11 0.00534946
11 *646:io_wbs_adr_i[11] *546:9 0.000721144
12 *544:9 *546:9 0.00356451
*RES
1 wbs_adr_i[12] *546:7 11.87 
2 *546:7 *546:9 58.065 
3 *546:9 *646:io_wbs_adr_i[12] 3.4025 
*END

*D_NET *547 0.012562
*CONN
*P wbs_adr_i[13] I
*I *646:io_wbs_adr_i[13] I *D CaravelTopLevel
*CAP
1 wbs_adr_i[13] 0.00316996
2 *646:io_wbs_adr_i[13] 0.00316996
3 *646:io_wbs_adr_i[13] *646:io_wbs_dat_i[12] 0.00028208
4 *646:io_wbs_adr_i[13] *646:io_wbs_dat_i[13] 0.00594002
*RES
1 wbs_adr_i[13] *646:io_wbs_adr_i[13] 24.4647 
*END

*D_NET *548 0.00888073
*CONN
*P wbs_adr_i[14] I
*I *646:io_wbs_adr_i[14] I *D CaravelTopLevel
*CAP
1 wbs_adr_i[14] 0.00444036
2 *646:io_wbs_adr_i[14] 0.00444036
3 *646:io_wbs_adr_i[14] wbs_dat_o[15] 0
4 *646:io_wbs_adr_i[14] *646:io_wbs_adr_i[18] 0
5 *646:io_wbs_adr_i[14] *639:9 0
6 *646:io_wbs_adr_i[11] *646:io_wbs_adr_i[14] 0
*RES
1 wbs_adr_i[14] *646:io_wbs_adr_i[14] 22.0947 
*END

*D_NET *549 0.0126057
*CONN
*P wbs_adr_i[15] I
*I *646:io_wbs_adr_i[15] I *D CaravelTopLevel
*CAP
1 wbs_adr_i[15] 0.000700237
2 *646:io_wbs_adr_i[15] 0.00010668
3 *549:9 0.00173235
4 *549:7 0.0023259
5 *549:7 *646:io_wbs_dat_i[10] 0
6 *549:9 *646:io_wbs_adr_i[16] 0.000641013
7 *549:9 *581:9 0.000528657
8 *549:9 *583:9 0.000142833
9 *549:9 *612:11 0.00420954
10 *549:9 *613:11 0.000183334
11 *549:9 *616:11 0.00203519
*RES
1 wbs_adr_i[15] *549:7 13.655 
2 *549:7 *549:9 55.305 
3 *549:9 *646:io_wbs_adr_i[15] 3.4925 
*END

*D_NET *550 0.0183604
*CONN
*P wbs_adr_i[16] I
*I *646:io_wbs_adr_i[16] I *D CaravelTopLevel
*CAP
1 wbs_adr_i[16] 0.00391183
2 *646:io_wbs_adr_i[16] 0.00391183
3 *646:io_wbs_adr_i[16] wbs_dat_o[15] 0.00567609
4 *646:io_wbs_adr_i[16] *646:io_wbs_dat_i[11] 0
5 *646:io_wbs_adr_i[16] *581:9 0.000706837
6 *646:io_wbs_adr_i[16] *583:9 0.00117063
7 *646:io_wbs_adr_i[16] *612:11 0.000483663
8 *646:io_wbs_adr_i[16] *613:11 0.00080484
9 *646:io_wbs_adr_i[16] *616:11 0.000473283
10 *646:io_wbs_adr_i[16] *617:11 0.000475956
11 *646:io_wbs_adr_i[16] *618:11 0.000104419
12 *549:9 *646:io_wbs_adr_i[16] 0.000641013
*RES
1 wbs_adr_i[16] *646:io_wbs_adr_i[16] 20.6423 
*END

*D_NET *551 0.0119911
*CONN
*P wbs_adr_i[17] I
*I *646:io_wbs_adr_i[17] I *D CaravelTopLevel
*CAP
1 wbs_adr_i[17] 0.000534676
2 *646:io_wbs_adr_i[17] 0.000164754
3 *551:9 0.00215105
4 *551:7 0.00252097
5 *551:9 wbs_dat_o[15] 0.00138272
6 *551:9 *582:9 0.00356394
7 *551:9 *588:9 0.000984552
8 *551:9 *615:13 0.000116583
9 *551:9 *618:11 0.000571855
*RES
1 wbs_adr_i[17] *551:7 11.36 
2 *551:7 *551:9 53.58 
3 *551:9 *646:io_wbs_adr_i[17] 4.2575 
*END

*D_NET *552 0.014608
*CONN
*P wbs_adr_i[18] I
*I *646:io_wbs_adr_i[18] I *D CaravelTopLevel
*CAP
1 wbs_adr_i[18] 0.00219692
2 *646:io_wbs_adr_i[18] 0.00219692
3 *646:io_wbs_adr_i[18] *646:io_wbs_dat_i[17] 0.00471366
4 *646:io_wbs_adr_i[18] *646:io_wbs_dat_i[18] 0.00527718
5 *646:io_wbs_adr_i[18] *557:11 0.000223336
6 *646:io_wbs_adr_i[14] *646:io_wbs_adr_i[18] 0
*RES
1 wbs_adr_i[18] *646:io_wbs_adr_i[18] 23.3764 
*END

*D_NET *553 0.0123757
*CONN
*P wbs_adr_i[19] I
*I *646:io_wbs_adr_i[19] I *D CaravelTopLevel
*CAP
1 wbs_adr_i[19] 0.0025048
2 *646:io_wbs_adr_i[19] 0.0025048
3 *646:io_wbs_adr_i[19] wbs_dat_o[20] 0.00334955
4 *646:io_wbs_adr_i[19] wbs_dat_o[22] 0
5 *646:io_wbs_adr_i[19] *646:io_wbs_adr_i[20] 0.000445434
6 *646:io_wbs_adr_i[19] *646:io_wbs_adr_i[21] 0.00284243
7 *646:io_wbs_adr_i[19] *646:io_wbs_adr_i[23] 0
8 *646:io_wbs_adr_i[19] *646:io_wbs_dat_i[18] 0.000728666
*RES
1 wbs_adr_i[19] *646:io_wbs_adr_i[19] 21.3955 
*END

*D_NET *554 0.0189953
*CONN
*P wbs_adr_i[1] I
*I *646:io_wbs_adr_i[1] I *D CaravelTopLevel
*CAP
1 wbs_adr_i[1] 0.00253537
2 *646:io_wbs_adr_i[1] 0.00253537
3 *646:io_wbs_adr_i[1] wbs_dat_o[1] 0.00685451
4 *646:io_wbs_adr_i[1] *646:io_wbs_dat_i[4] 0.00108812
5 *646:io_wbs_adr_i[1] *570:7 0
6 *646:io_wbs_adr_i[1] *603:9 0
7 *646:io_wbs_adr_i[0] *646:io_wbs_adr_i[1] 0.00598192
*RES
1 wbs_adr_i[1] *646:io_wbs_adr_i[1] 25.5088 
*END

*D_NET *555 0.0136489
*CONN
*P wbs_adr_i[20] I
*I *646:io_wbs_adr_i[20] I *D CaravelTopLevel
*CAP
1 wbs_adr_i[20] 0.00198076
2 *646:io_wbs_adr_i[20] 0.00198076
3 *646:io_wbs_adr_i[20] wbs_dat_o[20] 0.004751
4 *646:io_wbs_adr_i[20] wbs_dat_o[23] 0
5 *646:io_wbs_adr_i[20] *646:io_wbs_dat_i[18] 0.0032212
6 *646:io_wbs_adr_i[20] *646:io_wbs_dat_i[22] 0.00126971
7 *646:io_wbs_adr_i[19] *646:io_wbs_adr_i[20] 0.000445434
*RES
1 wbs_adr_i[20] *646:io_wbs_adr_i[20] 22.7594 
*END

*D_NET *556 0.0119946
*CONN
*P wbs_adr_i[21] I
*I *646:io_wbs_adr_i[21] I *D CaravelTopLevel
*CAP
1 wbs_adr_i[21] 0.00236114
2 *646:io_wbs_adr_i[21] 0.00236114
3 *646:io_wbs_adr_i[21] wbs_dat_o[20] 0.00135999
4 *646:io_wbs_adr_i[21] wbs_dat_o[24] 0.00024629
5 *646:io_wbs_adr_i[21] *646:io_wbs_adr_i[23] 0.00264059
6 *646:io_wbs_adr_i[21] *646:io_wbs_dat_i[24] 0.000182989
7 *646:io_wbs_adr_i[19] *646:io_wbs_adr_i[21] 0.00284243
*RES
1 wbs_adr_i[21] *646:io_wbs_adr_i[21] 21.0459 
*END

*D_NET *557 0.011696
*CONN
*P wbs_adr_i[22] I
*I *646:io_wbs_adr_i[22] I *D CaravelTopLevel
*CAP
1 wbs_adr_i[22] 0.000619859
2 *646:io_wbs_adr_i[22] 5.32873e-05
3 *557:13 0.00113337
4 *557:11 0.00169994
5 *557:11 *646:io_wbs_dat_i[18] 0
6 *557:13 wbs_dat_o[21] 0.000330062
7 *557:13 wbs_dat_o[22] 0.0010586
8 *557:13 *586:9 0.000955432
9 *557:13 *589:9 0.0011099
10 *557:13 *591:13 0.000309503
11 *557:13 *617:11 0.000721984
12 *557:13 *621:13 0.00348077
13 *646:io_wbs_adr_i[18] *557:11 0.000223336
*RES
1 wbs_adr_i[22] *557:11 13.88 
2 *557:11 *557:13 48.75 
3 *557:13 *646:io_wbs_adr_i[22] 2.8025 
*END

*D_NET *558 0.011135
*CONN
*P wbs_adr_i[23] I
*I *646:io_wbs_adr_i[23] I *D CaravelTopLevel
*CAP
1 wbs_adr_i[23] 0.00260469
2 *646:io_wbs_adr_i[23] 0.00260469
3 *646:io_wbs_adr_i[23] wbs_dat_o[26] 0.000686629
4 *646:io_wbs_adr_i[23] *646:io_wbs_adr_i[25] 0.0024896
5 *646:io_wbs_adr_i[23] *646:io_wbs_dat_i[24] 0.000108779
6 *646:io_wbs_adr_i[19] *646:io_wbs_adr_i[23] 0
7 *646:io_wbs_adr_i[21] *646:io_wbs_adr_i[23] 0.00264059
*RES
1 wbs_adr_i[23] *646:io_wbs_adr_i[23] 20.7546 
*END

*D_NET *559 0.0130691
*CONN
*P wbs_adr_i[24] I
*I *646:io_wbs_adr_i[24] I *D CaravelTopLevel
*CAP
1 wbs_adr_i[24] 0.00182334
2 *646:io_wbs_adr_i[24] 0.00182334
3 *646:io_wbs_adr_i[24] wbs_dat_o[20] 0.000140361
4 *646:io_wbs_adr_i[24] wbs_dat_o[27] 0
5 *646:io_wbs_adr_i[24] *646:io_wbs_adr_i[27] 0.000765805
6 *646:io_wbs_adr_i[24] *646:io_wbs_dat_i[22] 0.00295184
7 *646:io_wbs_adr_i[24] *646:io_wbs_dat_i[24] 0.00500027
8 *646:io_wbs_adr_i[24] *646:io_wbs_dat_i[26] 0.000564161
9 *646:io_wbs_adr_i[24] *646:io_wbs_dat_i[27] 0
*RES
1 wbs_adr_i[24] *646:io_wbs_adr_i[24] 22.0717 
*END

*D_NET *560 0.0113427
*CONN
*P wbs_adr_i[25] I
*I *646:io_wbs_adr_i[25] I *D CaravelTopLevel
*CAP
1 wbs_adr_i[25] 0.00212395
2 *646:io_wbs_adr_i[25] 0.00212395
3 *646:io_wbs_adr_i[25] wbs_dat_o[28] 0
4 *646:io_wbs_adr_i[25] *646:io_wbs_adr_i[26] 0.0038024
5 *646:io_wbs_adr_i[25] *646:io_wbs_dat_i[24] 0.000222897
6 *646:io_wbs_adr_i[25] *646:io_wbs_dat_i[25] 0.000579869
7 *646:io_wbs_adr_i[25] *646:io_wbs_dat_i[27] 0
8 *646:io_wbs_adr_i[23] *646:io_wbs_adr_i[25] 0.0024896
*RES
1 wbs_adr_i[25] *646:io_wbs_adr_i[25] 20.4632 
*END

*D_NET *561 0.0124667
*CONN
*P wbs_adr_i[26] I
*I *646:io_wbs_adr_i[26] I *D CaravelTopLevel
*CAP
1 wbs_adr_i[26] 0.00173219
2 *646:io_wbs_adr_i[26] 0.00173219
3 *646:io_wbs_adr_i[26] wbs_dat_o[29] 0
4 *646:io_wbs_adr_i[26] *646:io_wbs_adr_i[28] 0.000532856
5 *646:io_wbs_adr_i[26] *646:io_wbs_dat_i[22] 6.87052e-05
6 *646:io_wbs_adr_i[26] *646:io_wbs_dat_i[25] 0.00428121
7 *646:io_wbs_adr_i[26] *646:io_wbs_dat_i[27] 0
8 *646:io_wbs_adr_i[26] *646:io_wbs_dat_i[29] 0.000317198
9 *646:io_wbs_adr_i[25] *646:io_wbs_adr_i[26] 0.0038024
*RES
1 wbs_adr_i[26] *646:io_wbs_adr_i[26] 20.3467 
*END

*D_NET *562 0.0125971
*CONN
*P wbs_adr_i[27] I
*I *646:io_wbs_adr_i[27] I *D CaravelTopLevel
*CAP
1 wbs_adr_i[27] 0.00195171
2 *646:io_wbs_adr_i[27] 0.00195171
3 *646:io_wbs_adr_i[27] wbs_dat_o[30] 0
4 *646:io_wbs_adr_i[27] *646:io_wbs_adr_i[28] 0.000164547
5 *646:io_wbs_adr_i[27] *646:io_wbs_dat_i[24] 0.000259271
6 *646:io_wbs_adr_i[27] *646:io_wbs_dat_i[25] 0.000145659
7 *646:io_wbs_adr_i[27] *646:io_wbs_dat_i[26] 0.00408353
8 *646:io_wbs_adr_i[27] *646:io_wbs_dat_i[28] 0.00327487
9 *646:io_wbs_adr_i[27] *646:io_wbs_dat_i[30] 0
10 *646:io_wbs_adr_i[24] *646:io_wbs_adr_i[27] 0.000765805
*RES
1 wbs_adr_i[27] *646:io_wbs_adr_i[27] 23.1552 
*END

*D_NET *563 0.0109125
*CONN
*P wbs_adr_i[28] I
*I *646:io_wbs_adr_i[28] I *D CaravelTopLevel
*CAP
1 wbs_adr_i[28] 0.00215493
2 *646:io_wbs_adr_i[28] 0.00215493
3 *646:io_wbs_adr_i[28] wbs_dat_o[28] 0
4 *646:io_wbs_adr_i[28] *646:io_wbs_adr_i[30] 0.00194405
5 *646:io_wbs_adr_i[28] *646:io_wbs_dat_i[25] 0.00110513
6 *646:io_wbs_adr_i[28] *646:io_wbs_dat_i[27] 0
7 *646:io_wbs_adr_i[28] *646:io_wbs_dat_i[28] 0.00243601
8 *646:io_wbs_adr_i[28] *600:9 0.00042007
9 *646:io_wbs_adr_i[26] *646:io_wbs_adr_i[28] 0.000532856
10 *646:io_wbs_adr_i[27] *646:io_wbs_adr_i[28] 0.000164547
*RES
1 wbs_adr_i[28] *646:io_wbs_adr_i[28] 20.5356 
*END

*D_NET *564 0.0121321
*CONN
*P wbs_adr_i[29] I
*I *646:io_wbs_adr_i[29] I *D CaravelTopLevel
*CAP
1 wbs_adr_i[29] 0.00178348
2 *646:io_wbs_adr_i[29] 0.00178348
3 *646:io_wbs_adr_i[29] wbs_dat_o[27] 0.000314591
4 *646:io_wbs_adr_i[29] wbs_dat_o[28] 0.00441614
5 *646:io_wbs_adr_i[29] wbs_dat_o[29] 0.00383445
6 *646:io_wbs_adr_i[29] *646:io_wbs_dat_i[25] 0
7 *646:io_la_data_in[0] *646:io_wbs_adr_i[29] 0
*RES
1 wbs_adr_i[29] *646:io_wbs_adr_i[29] 19.8806 
*END

*D_NET *565 0.0187138
*CONN
*P wbs_adr_i[2] I
*I *646:io_wbs_adr_i[2] I *D CaravelTopLevel
*CAP
1 wbs_adr_i[2] 0.0043507
2 *646:io_wbs_adr_i[2] 0.0043507
3 *646:io_wbs_adr_i[2] wbs_dat_o[0] 0.000280108
4 *646:io_wbs_adr_i[2] wbs_dat_o[6] 0
5 *646:io_wbs_adr_i[2] *646:io_wbs_adr_i[3] 0.0055971
6 *646:io_wbs_adr_i[2] *646:io_wbs_dat_i[0] 0.00097082
7 *646:io_wbs_adr_i[2] *575:9 0.000608314
8 *646:io_wbs_adr_i[2] *601:11 0.000118286
9 *646:io_wbs_adr_i[2] *601:13 0.000595989
10 *646:io_wbs_adr_i[2] *603:9 0.000439381
11 *646:io_wbs_adr_i[2] *641:9 0.000211067
12 *646:io_wbs_adr_i[2] *644:9 0.000542236
13 *646:io_wb_clk_i *646:io_wbs_adr_i[2] 0.000649066
*RES
1 wbs_adr_i[2] *646:io_wbs_adr_i[2] 22.9089 
*END

*D_NET *566 0.00886098
*CONN
*P wbs_adr_i[30] I
*I *646:io_wbs_adr_i[30] I *D CaravelTopLevel
*CAP
1 wbs_adr_i[30] 0.00240042
2 *646:io_wbs_adr_i[30] 0.00240042
3 *646:io_wbs_adr_i[30] *646:io_wbs_adr_i[31] 0.000712657
4 *646:io_wbs_adr_i[30] *646:io_wbs_dat_i[26] 0
5 *646:io_wbs_adr_i[30] *646:io_wbs_dat_i[28] 0.00140343
6 la_data_out[0] *646:io_wbs_adr_i[30] 0
7 la_data_out[1] *646:io_wbs_adr_i[30] 0
8 *646:io_la_data_in[1] *646:io_wbs_adr_i[30] 0
9 *646:io_wbs_adr_i[28] *646:io_wbs_adr_i[30] 0.00194405
*RES
1 wbs_adr_i[30] *646:io_wbs_adr_i[30] 19.7058 
*END

*D_NET *567 0.00741244
*CONN
*P wbs_adr_i[31] I
*I *646:io_wbs_adr_i[31] I *D CaravelTopLevel
*CAP
1 wbs_adr_i[31] 0.00295825
2 *646:io_wbs_adr_i[31] 0.00295825
3 *646:io_wbs_adr_i[31] *646:io_wbs_dat_i[28] 0.000485464
4 la_data_out[2] *646:io_wbs_adr_i[31] 0
5 *646:io_la_data_in[2] *646:io_wbs_adr_i[31] 0.000297812
6 *646:io_wbs_adr_i[30] *646:io_wbs_adr_i[31] 0.000712657
*RES
1 wbs_adr_i[31] *646:io_wbs_adr_i[31] 21.4694 
*END

*D_NET *568 0.0205849
*CONN
*P wbs_adr_i[3] I
*I *646:io_wbs_adr_i[3] I *D CaravelTopLevel
*CAP
1 wbs_adr_i[3] 0.00412642
2 *646:io_wbs_adr_i[3] 0.00412642
3 *646:io_wbs_adr_i[3] wbs_dat_o[0] 0.00154082
4 *646:io_wbs_adr_i[3] wbs_dat_o[7] 2.92011e-05
5 *646:io_wbs_adr_i[3] *646:io_wbs_dat_i[2] 0.00121295
6 *646:io_wbs_adr_i[3] *646:io_wbs_dat_i[3] 0
7 *646:io_wbs_adr_i[3] *572:15 0.000101386
8 *646:io_wbs_adr_i[3] *601:13 0.000202771
9 *646:io_wbs_adr_i[3] *603:9 0.00066367
10 *646:io_wbs_adr_i[3] *605:9 0.000110612
11 *646:io_wbs_adr_i[3] *630:11 0.000783521
12 *646:io_wbs_adr_i[3] *633:11 0.000791703
13 *646:io_wbs_adr_i[3] *634:11 0.000243712
14 *646:io_wbs_adr_i[3] *635:11 0.000646216
15 *646:io_wbs_adr_i[3] *641:9 0.000304175
16 *646:io_wbs_adr_i[3] *643:13 0.000104198
17 *646:io_wbs_adr_i[2] *646:io_wbs_adr_i[3] 0.0055971
*RES
1 wbs_adr_i[3] *646:io_wbs_adr_i[3] 22.6759 
*END

*D_NET *569 0.0138353
*CONN
*P wbs_adr_i[4] I
*I *646:io_wbs_adr_i[4] I *D CaravelTopLevel
*CAP
1 wbs_adr_i[4] 0.00341027
2 *646:io_wbs_adr_i[4] 0.00341027
3 *646:io_wbs_adr_i[4] wbs_dat_o[1] 0.00262895
4 *646:io_wbs_adr_i[4] wbs_dat_o[8] 0
5 *646:io_wbs_adr_i[4] *646:io_wbs_adr_i[6] 0.000164547
6 *646:io_wbs_adr_i[4] *646:io_wbs_adr_i[9] 0
7 *646:io_wbs_adr_i[4] *646:io_wbs_dat_i[4] 0.000215454
8 *646:io_wbs_adr_i[4] *646:io_wbs_dat_i[6] 0.00396598
9 *646:io_wbs_adr_i[4] *638:25 0
10 *646:io_wbs_adr_i[0] *646:io_wbs_adr_i[4] 3.98738e-05
*RES
1 wbs_adr_i[4] *646:io_wbs_adr_i[4] 25.4131 
*END

*D_NET *570 0.0161529
*CONN
*P wbs_adr_i[5] I
*I *646:io_wbs_adr_i[5] I *D CaravelTopLevel
*CAP
1 wbs_adr_i[5] 0.000665221
2 *646:io_wbs_adr_i[5] 0.000197226
3 *570:9 0.00125106
4 *570:7 0.00171905
5 *570:7 *646:io_wbs_sel_i[0] 0
6 *570:9 *646:io_wbs_adr_i[9] 0.000241628
7 *570:9 *646:io_wbs_dat_i[2] 0.000140716
8 *570:9 *587:9 0.000648106
9 *570:9 *606:13 0.00203334
10 *570:9 *607:11 0.000265289
11 *570:9 *634:11 0.00648926
12 *570:9 *643:13 0.00250199
13 *646:io_wbs_adr_i[1] *570:7 0
*RES
1 wbs_adr_i[5] *570:7 13.145 
2 *570:7 *570:9 63.93 
3 *570:9 *646:io_wbs_adr_i[5] 3.4925 
*END

*D_NET *571 0.0168649
*CONN
*P wbs_adr_i[6] I
*I *646:io_wbs_adr_i[6] I *D CaravelTopLevel
*CAP
1 wbs_adr_i[6] 0.00222826
2 *646:io_wbs_adr_i[6] 0.00222826
3 *646:io_wbs_adr_i[6] wbs_dat_o[10] 0.000119155
4 *646:io_wbs_adr_i[6] *646:io_wbs_dat_i[4] 0.00472209
5 *646:io_wbs_adr_i[6] *646:io_wbs_dat_i[6] 0.00677462
6 *646:io_wbs_adr_i[6] *638:25 0.000628011
7 *646:io_wbs_adr_i[11] *646:io_wbs_adr_i[6] 0
8 *646:io_wbs_adr_i[4] *646:io_wbs_adr_i[6] 0.000164547
*RES
1 wbs_adr_i[6] *646:io_wbs_adr_i[6] 24.9752 
*END

*D_NET *572 0.015392
*CONN
*P wbs_adr_i[7] I
*I *646:io_wbs_adr_i[7] I *D CaravelTopLevel
*CAP
1 wbs_adr_i[7] 0.00137177
2 *646:io_wbs_adr_i[7] 0.000377535
3 *572:19 0.00197532
4 *572:15 0.00296955
5 *646:io_wbs_adr_i[7] wbs_dat_o[11] 0.000612146
6 *572:15 wbs_dat_o[8] 8.85218e-05
7 *572:15 *601:13 0.00135622
8 *572:15 *603:9 0.000216216
9 *572:15 *605:9 0.00179933
10 *572:15 *606:11 0
11 *572:15 *630:11 4.77807e-05
12 *572:15 *635:11 0.000256797
13 *572:15 *638:25 0
14 *572:19 *646:io_wbs_dat_i[5] 0.00228573
15 *572:19 *638:13 0.00144895
16 *572:19 *639:11 0.000484719
17 *646:io_wbs_adr_i[3] *572:15 0.000101386
*RES
1 wbs_adr_i[7] *572:15 43.5 
2 *572:15 *572:19 43.505 
3 *572:19 *646:io_wbs_adr_i[7] 7.7775 
*END

*D_NET *573 0.0164166
*CONN
*P wbs_adr_i[8] I
*I *646:io_wbs_adr_i[8] I *D CaravelTopLevel
*CAP
1 wbs_adr_i[8] 0.000917646
2 *646:io_wbs_adr_i[8] 0.000120041
3 *573:17 0.00102683
4 *573:15 0.00182443
5 *573:15 wbs_dat_o[6] 0.000871391
6 *573:15 *646:io_wbs_dat_i[5] 0
7 *573:15 *606:13 5.95938e-05
8 *573:15 *636:13 8.87452e-06
9 *573:15 *643:13 0.000759446
10 *573:17 wbs_dat_o[6] 1.5379e-05
11 *573:17 *646:io_wbs_adr_i[9] 0.000676612
12 *573:17 *606:13 0.00570892
13 *573:17 *636:13 0.00387232
14 *573:17 *637:11 0.000555097
*RES
1 wbs_adr_i[8] *573:15 23.555 
2 *573:15 *573:17 52.545 
3 *573:17 *646:io_wbs_adr_i[8] 3.4925 
*END

*D_NET *574 0.0207851
*CONN
*P wbs_adr_i[9] I
*I *646:io_wbs_adr_i[9] I *D CaravelTopLevel
*CAP
1 wbs_adr_i[9] 0.00531053
2 *646:io_wbs_adr_i[9] 0.00531053
3 *646:io_wbs_adr_i[9] *646:io_wbs_dat_i[4] 0
4 *646:io_wbs_adr_i[9] *605:9 0.000467689
5 *646:io_wbs_adr_i[9] *606:13 0.000995018
6 *646:io_wbs_adr_i[9] *607:11 0.000223067
7 *646:io_wbs_adr_i[9] *607:13 0.000891149
8 *646:io_wbs_adr_i[9] *609:11 0.000633592
9 *646:io_wbs_adr_i[9] *610:11 0.000685235
10 *646:io_wbs_adr_i[9] *634:11 0.000160066
11 *646:io_wbs_adr_i[9] *635:11 0.000363162
12 *646:io_wbs_adr_i[9] *636:13 0.000460456
13 *646:io_wbs_adr_i[9] *638:25 0.000337435
14 *646:io_wbs_adr_i[11] *646:io_wbs_adr_i[9] 0.00386737
15 *646:io_wbs_adr_i[4] *646:io_wbs_adr_i[9] 0
16 *544:9 *646:io_wbs_adr_i[9] 0.000161545
17 *570:9 *646:io_wbs_adr_i[9] 0.000241628
18 *573:17 *646:io_wbs_adr_i[9] 0.000676612
*RES
1 wbs_adr_i[9] *646:io_wbs_adr_i[9] 21.6911 
*END

*D_NET *575 0.0159793
*CONN
*P wbs_cyc_i I
*I *646:io_wbs_cyc_i I *D CaravelTopLevel
*CAP
1 wbs_cyc_i 0.000524971
2 *646:io_wbs_cyc_i 0.000232623
3 *575:9 0.00289898
4 *575:7 0.00319133
5 *646:io_wbs_cyc_i *601:11 3.59531e-06
6 *575:9 *644:9 0.00715562
7 *646:io_wb_clk_i *575:9 0.00136388
8 *646:io_wbs_adr_i[2] *575:9 0.000608314
*RES
1 wbs_cyc_i *575:7 11.36 
2 *575:7 *575:9 70.485 
3 *575:9 *646:io_wbs_cyc_i 4.2575 
*END

*D_NET *576 0.0138141
*CONN
*P wbs_dat_i[0] I
*I *646:io_wbs_dat_i[0] I *D CaravelTopLevel
*CAP
1 wbs_dat_i[0] 0.00387758
2 *646:io_wbs_dat_i[0] 0.00387758
3 *646:io_wb_clk_i *646:io_wbs_dat_i[0] 0
4 *646:io_wb_rst_i *646:io_wbs_dat_i[0] 0.00508807
5 *646:io_wbs_adr_i[2] *646:io_wbs_dat_i[0] 0.00097082
*RES
1 wbs_dat_i[0] *646:io_wbs_dat_i[0] 24.3671 
*END

*D_NET *577 0.0142484
*CONN
*P wbs_dat_i[10] I
*I *646:io_wbs_dat_i[10] I *D CaravelTopLevel
*CAP
1 wbs_dat_i[10] 0.000542901
2 *646:io_wbs_dat_i[10] 7.09787e-05
3 *577:9 0.00233536
4 *577:7 0.00280729
5 *646:io_wbs_dat_i[10] wbs_dat_o[14] 0
6 *577:7 *646:io_wbs_dat_i[5] 0
7 *646:io_wbs_adr_i[11] *577:9 0.00216628
8 *544:9 *577:9 0.00599014
9 *546:9 *577:9 0.000335451
10 *549:7 *646:io_wbs_dat_i[10] 0
*RES
1 wbs_dat_i[10] *577:7 11.36 
2 *577:7 *577:9 60.6525 
3 *577:9 *646:io_wbs_dat_i[10] 2.945 
*END

*D_NET *578 0.0123023
*CONN
*P wbs_dat_i[11] I
*I *646:io_wbs_dat_i[11] I *D CaravelTopLevel
*CAP
1 wbs_dat_i[11] 0.00344584
2 *646:io_wbs_dat_i[11] 0.00344584
3 *646:io_wbs_dat_i[11] wbs_dat_o[15] 0.000365736
4 *646:io_wbs_dat_i[11] *646:io_wbs_dat_i[12] 0.00504486
5 *646:io_wbs_adr_i[11] *646:io_wbs_dat_i[11] 0
6 *646:io_wbs_adr_i[16] *646:io_wbs_dat_i[11] 0
*RES
1 wbs_dat_i[11] *646:io_wbs_dat_i[11] 24.3828 
*END

*D_NET *579 0.0151418
*CONN
*P wbs_dat_i[12] I
*I *646:io_wbs_dat_i[12] I *D CaravelTopLevel
*CAP
1 wbs_dat_i[12] 0.00227007
2 *646:io_wbs_dat_i[12] 0.00227007
3 *646:io_wbs_dat_i[12] wbs_dat_o[16] 0.000369813
4 *646:io_wbs_dat_i[12] *646:io_wbs_dat_i[13] 0.00490488
5 *646:io_wbs_dat_i[12] *583:7 0
6 *646:io_wbs_adr_i[13] *646:io_wbs_dat_i[12] 0.00028208
7 *646:io_wbs_dat_i[11] *646:io_wbs_dat_i[12] 0.00504486
*RES
1 wbs_dat_i[12] *646:io_wbs_dat_i[12] 24.6164 
*END

*D_NET *580 0.0155101
*CONN
*P wbs_dat_i[13] I
*I *646:io_wbs_dat_i[13] I *D CaravelTopLevel
*CAP
1 wbs_dat_i[13] 0.00209008
2 *646:io_wbs_dat_i[13] 0.00209008
3 *646:io_wbs_dat_i[13] wbs_dat_o[17] 0.000222863
4 *646:io_wbs_dat_i[13] *646:io_wbs_dat_i[17] 0.000262138
5 *646:io_wbs_adr_i[13] *646:io_wbs_dat_i[13] 0.00594002
6 *646:io_wbs_dat_i[12] *646:io_wbs_dat_i[13] 0.00490488
*RES
1 wbs_dat_i[13] *646:io_wbs_dat_i[13] 25.0347 
*END

*D_NET *581 0.0157912
*CONN
*P wbs_dat_i[14] I
*I *646:io_wbs_dat_i[14] I *D CaravelTopLevel
*CAP
1 wbs_dat_i[14] 0.000667358
2 *646:io_wbs_dat_i[14] 0.000162052
3 *581:9 0.000992666
4 *581:7 0.00149797
5 *581:7 *639:9 0
6 *581:9 *610:11 0.000261612
7 *581:9 *612:11 0.00514686
8 *581:9 *613:11 0.00559538
9 *646:io_wbs_adr_i[10] *581:7 0
10 *646:io_wbs_adr_i[11] *581:9 0.000231771
11 *646:io_wbs_adr_i[16] *581:9 0.000706837
12 *549:9 *581:9 0.000528657
*RES
1 wbs_dat_i[14] *581:7 13.145 
2 *581:7 *581:9 55.65 
3 *581:9 *646:io_wbs_dat_i[14] 3.4925 
*END

*D_NET *582 0.013386
*CONN
*P wbs_dat_i[15] I
*I *646:io_wbs_dat_i[15] I *D CaravelTopLevel
*CAP
1 wbs_dat_i[15] 0.000550749
2 *646:io_wbs_dat_i[15] 0.00021442
3 *582:9 0.00161261
4 *582:7 0.00194894
5 *582:9 wbs_dat_o[15] 0.000878725
6 *582:9 wbs_dat_o[16] 0.00122783
7 *582:9 *611:11 0.0002546
8 *582:9 *615:13 0.00163018
9 *546:9 *582:9 0.00150396
10 *551:9 *582:9 0.00356394
*RES
1 wbs_dat_i[15] *582:7 11.615 
2 *582:7 *582:9 54.96 
3 *582:9 *646:io_wbs_dat_i[15] 4.0025 
*END

*D_NET *583 0.0137152
*CONN
*P wbs_dat_i[16] I
*I *646:io_wbs_dat_i[16] I *D CaravelTopLevel
*CAP
1 wbs_dat_i[16] 0.000620347
2 *646:io_wbs_dat_i[16] 0.000131259
3 *583:9 0.0011335
4 *583:7 0.00162259
5 *583:9 wbs_dat_o[16] 0.000322546
6 *583:9 *586:9 0.000908453
7 *583:9 *611:11 0.000527586
8 *583:9 *613:11 0.00361037
9 *583:9 *615:13 0.000973929
10 *583:9 *616:11 2.90737e-05
11 *583:9 *617:11 0.00248476
12 *646:io_wbs_adr_i[12] *583:7 3.72952e-05
13 *646:io_wbs_adr_i[16] *583:9 0.00117063
14 *646:io_wbs_dat_i[12] *583:7 0
15 *549:9 *583:9 0.000142833
*RES
1 wbs_dat_i[16] *583:7 12.635 
2 *583:7 *583:9 53.925 
3 *583:9 *646:io_wbs_dat_i[16] 3.4925 
*END

*D_NET *584 0.0114723
*CONN
*P wbs_dat_i[17] I
*I *646:io_wbs_dat_i[17] I *D CaravelTopLevel
*CAP
1 wbs_dat_i[17] 0.00299301
2 *646:io_wbs_dat_i[17] 0.00299301
3 *646:io_wbs_dat_i[17] *589:7 0.00051051
4 *646:io_wbs_adr_i[18] *646:io_wbs_dat_i[17] 0.00471366
5 *646:io_wbs_dat_i[13] *646:io_wbs_dat_i[17] 0.000262138
*RES
1 wbs_dat_i[17] *646:io_wbs_dat_i[17] 22.8816 
*END

*D_NET *585 0.0136881
*CONN
*P wbs_dat_i[18] I
*I *646:io_wbs_dat_i[18] I *D CaravelTopLevel
*CAP
1 wbs_dat_i[18] 0.00221525
2 *646:io_wbs_dat_i[18] 0.00221525
3 *646:io_wbs_dat_i[18] *646:io_wbs_dat_i[22] 3.05937e-05
4 *646:io_wbs_adr_i[18] *646:io_wbs_dat_i[18] 0.00527718
5 *646:io_wbs_adr_i[19] *646:io_wbs_dat_i[18] 0.000728666
6 *646:io_wbs_adr_i[20] *646:io_wbs_dat_i[18] 0.0032212
7 *557:11 *646:io_wbs_dat_i[18] 0
*RES
1 wbs_dat_i[18] *646:io_wbs_dat_i[18] 22.8874 
*END

*D_NET *586 0.010629
*CONN
*P wbs_dat_i[19] I
*I *646:io_wbs_dat_i[19] I *D CaravelTopLevel
*CAP
1 wbs_dat_i[19] 0.000660982
2 *646:io_wbs_dat_i[19] 0.000138227
3 *586:9 0.00121308
4 *586:7 0.00173583
5 *586:9 wbs_dat_o[22] 0.000131882
6 *586:9 *589:9 0.00271049
7 *586:9 *616:11 0.0011833
8 *586:9 *617:11 0.000991328
9 *557:13 *586:9 0.000955432
10 *583:9 *586:9 0.000908453
*RES
1 wbs_dat_i[19] *586:7 13.145 
2 *586:7 *586:9 51.51 
3 *586:9 *646:io_wbs_dat_i[19] 3.4925 
*END

*D_NET *587 0.0149823
*CONN
*P wbs_dat_i[1] I
*I *646:io_wbs_dat_i[1] I *D CaravelTopLevel
*CAP
1 wbs_dat_i[1] 0.000693348
2 *646:io_wbs_dat_i[1] 0.000150667
3 *587:9 0.0019686
4 *587:7 0.00251128
5 *587:9 *646:io_wbs_dat_i[2] 0.00120834
6 *587:9 *633:11 0.000668104
7 *587:9 *634:11 0.000284459
8 *587:9 *640:9 0.00271359
9 *587:9 *642:9 0.00118949
10 *587:9 *643:13 0.00248538
11 wbs_ack_o *587:9 0.000460946
12 *570:9 *587:9 0.000648106
*RES
1 wbs_dat_i[1] *587:7 13.4 
2 *587:7 *587:9 68.07 
3 *587:9 *646:io_wbs_dat_i[1] 3.4925 
*END

*D_NET *588 0.0116757
*CONN
*P wbs_dat_i[20] I
*I *646:io_wbs_dat_i[20] I *D CaravelTopLevel
*CAP
1 wbs_dat_i[20] 0.00055321
2 *646:io_wbs_dat_i[20] 5.3207e-05
3 *588:9 0.00177499
4 *588:7 0.002275
5 *646:io_wbs_dat_i[20] wbs_dat_o[20] 0
6 *588:9 wbs_dat_o[22] 0.000527133
7 *588:9 *591:13 0.000124683
8 *588:9 *618:11 0.00456982
9 *588:9 *623:11 0.000813075
10 *551:9 *588:9 0.000984552
*RES
1 wbs_dat_i[20] *588:7 11.615 
2 *588:7 *588:9 51.6825 
3 *588:9 *646:io_wbs_dat_i[20] 2.69 
*END

*D_NET *589 0.0101073
*CONN
*P wbs_dat_i[21] I
*I *646:io_wbs_dat_i[21] I *D CaravelTopLevel
*CAP
1 wbs_dat_i[21] 0.000496402
2 *646:io_wbs_dat_i[21] 0.000127612
3 *589:9 0.00193927
4 *589:7 0.00230806
5 *589:9 wbs_dat_o[22] 0.000635642
6 *589:9 *616:11 0.0002694
7 *646:io_wbs_dat_i[17] *589:7 0.00051051
8 *557:13 *589:9 0.0011099
9 *586:9 *589:9 0.00271049
*RES
1 wbs_dat_i[21] *589:7 13.4 
2 *589:7 *589:9 49.785 
3 *589:9 *646:io_wbs_dat_i[21] 3.4925 
*END

*D_NET *590 0.0102859
*CONN
*P wbs_dat_i[22] I
*I *646:io_wbs_dat_i[22] I *D CaravelTopLevel
*CAP
1 wbs_dat_i[22] 0.00288352
2 *646:io_wbs_dat_i[22] 0.00288352
3 *646:io_wbs_dat_i[22] wbs_dat_o[20] 0.000198005
4 *646:io_wbs_adr_i[20] *646:io_wbs_dat_i[22] 0.00126971
5 *646:io_wbs_adr_i[24] *646:io_wbs_dat_i[22] 0.00295184
6 *646:io_wbs_adr_i[26] *646:io_wbs_dat_i[22] 6.87052e-05
7 *646:io_wbs_dat_i[18] *646:io_wbs_dat_i[22] 3.05937e-05
*RES
1 wbs_dat_i[22] *646:io_wbs_dat_i[22] 24.1411 
*END

*D_NET *591 0.0126409
*CONN
*P wbs_dat_i[23] I
*I *646:io_wbs_dat_i[23] I *D CaravelTopLevel
*CAP
1 wbs_dat_i[23] 0.000597476
2 *646:io_wbs_dat_i[23] 0.000161615
3 *591:13 0.00115738
4 *591:7 0.00159324
5 *591:7 *618:9 0
6 *591:13 wbs_dat_o[22] 0.000318155
7 *591:13 *618:11 0.00023422
8 *591:13 *621:13 0.00292606
9 *591:13 *623:11 0.00472349
10 *591:13 *626:11 0.000495076
11 *557:13 *591:13 0.000309503
12 *588:9 *591:13 0.000124683
*RES
1 wbs_dat_i[23] *591:7 12.125 
2 *591:7 *591:13 49.9475 
3 *591:13 *646:io_wbs_dat_i[23] 1.26 
*END

*D_NET *592 0.0133285
*CONN
*P wbs_dat_i[24] I
*I *646:io_wbs_dat_i[24] I *D CaravelTopLevel
*CAP
1 wbs_dat_i[24] 0.00172816
2 *646:io_wbs_dat_i[24] 0.00172816
3 *646:io_wbs_dat_i[24] wbs_dat_o[20] 0.000262928
4 *646:io_wbs_dat_i[24] wbs_dat_o[27] 0
5 *646:io_wbs_dat_i[24] *646:io_wbs_dat_i[25] 0.00383508
6 *646:io_wbs_adr_i[21] *646:io_wbs_dat_i[24] 0.000182989
7 *646:io_wbs_adr_i[23] *646:io_wbs_dat_i[24] 0.000108779
8 *646:io_wbs_adr_i[24] *646:io_wbs_dat_i[24] 0.00500027
9 *646:io_wbs_adr_i[25] *646:io_wbs_dat_i[24] 0.000222897
10 *646:io_wbs_adr_i[27] *646:io_wbs_dat_i[24] 0.000259271
*RES
1 wbs_dat_i[24] *646:io_wbs_dat_i[24] 21.4913 
*END

*D_NET *593 0.0131862
*CONN
*P wbs_dat_i[25] I
*I *646:io_wbs_dat_i[25] I *D CaravelTopLevel
*CAP
1 wbs_dat_i[25] 0.00161965
2 *646:io_wbs_dat_i[25] 0.00161965
3 *646:io_wbs_dat_i[25] wbs_dat_o[28] 0
4 *646:io_wbs_adr_i[25] *646:io_wbs_dat_i[25] 0.000579869
5 *646:io_wbs_adr_i[26] *646:io_wbs_dat_i[25] 0.00428121
6 *646:io_wbs_adr_i[27] *646:io_wbs_dat_i[25] 0.000145659
7 *646:io_wbs_adr_i[28] *646:io_wbs_dat_i[25] 0.00110513
8 *646:io_wbs_adr_i[29] *646:io_wbs_dat_i[25] 0
9 *646:io_wbs_dat_i[24] *646:io_wbs_dat_i[25] 0.00383508
*RES
1 wbs_dat_i[25] *646:io_wbs_dat_i[25] 20.1182 
*END

*D_NET *594 0.0101585
*CONN
*P wbs_dat_i[26] I
*I *646:io_wbs_dat_i[26] I *D CaravelTopLevel
*CAP
1 wbs_dat_i[26] 0.00263087
2 *646:io_wbs_dat_i[26] 0.00263087
3 *646:io_wbs_dat_i[26] wbs_dat_o[29] 0.000249119
4 *646:io_wbs_adr_i[24] *646:io_wbs_dat_i[26] 0.000564161
5 *646:io_wbs_adr_i[27] *646:io_wbs_dat_i[26] 0.00408353
6 *646:io_wbs_adr_i[30] *646:io_wbs_dat_i[26] 0
*RES
1 wbs_dat_i[26] *646:io_wbs_dat_i[26] 22.1686 
*END

*D_NET *595 0.00940176
*CONN
*P wbs_dat_i[27] I
*I *646:io_wbs_dat_i[27] I *D CaravelTopLevel
*CAP
1 wbs_dat_i[27] 0.00309538
2 *646:io_wbs_dat_i[27] 0.00309538
3 *646:io_wbs_dat_i[27] wbs_dat_o[27] 0
4 *646:io_wbs_dat_i[27] wbs_dat_o[28] 0.00302323
5 *646:io_wbs_dat_i[27] wbs_dat_o[30] 0.000187771
6 *646:io_wbs_adr_i[24] *646:io_wbs_dat_i[27] 0
7 *646:io_wbs_adr_i[25] *646:io_wbs_dat_i[27] 0
8 *646:io_wbs_adr_i[26] *646:io_wbs_dat_i[27] 0
9 *646:io_wbs_adr_i[28] *646:io_wbs_dat_i[27] 0
*RES
1 wbs_dat_i[27] *646:io_wbs_dat_i[27] 20.1136 
*END

*D_NET *596 0.01157
*CONN
*P wbs_dat_i[28] I
*I *646:io_wbs_dat_i[28] I *D CaravelTopLevel
*CAP
1 wbs_dat_i[28] 0.00180852
2 *646:io_wbs_dat_i[28] 0.00180852
3 *646:io_wbs_dat_i[28] wbs_dat_o[31] 0.000353204
4 *646:io_wbs_dat_i[28] *600:9 0
5 *646:io_wbs_adr_i[27] *646:io_wbs_dat_i[28] 0.00327487
6 *646:io_wbs_adr_i[28] *646:io_wbs_dat_i[28] 0.00243601
7 *646:io_wbs_adr_i[30] *646:io_wbs_dat_i[28] 0.00140343
8 *646:io_wbs_adr_i[31] *646:io_wbs_dat_i[28] 0.000485464
*RES
1 wbs_dat_i[28] *646:io_wbs_dat_i[28] 20.8036 
*END

*D_NET *597 0.0118709
*CONN
*P wbs_dat_i[29] I
*I *646:io_wbs_dat_i[29] I *D CaravelTopLevel
*CAP
1 wbs_dat_i[29] 0.00299138
2 *646:io_wbs_dat_i[29] 0.00299138
3 *646:io_wbs_dat_i[29] wbs_dat_o[27] 0.000783029
4 *646:io_wbs_dat_i[29] *646:io_wbs_dat_i[30] 0.00336957
5 *646:io_wbs_dat_i[29] *626:11 0.000453342
6 *646:io_wbs_dat_i[29] *631:13 0.000965021
7 *646:io_wbs_adr_i[26] *646:io_wbs_dat_i[29] 0.000317198
*RES
1 wbs_dat_i[29] *646:io_wbs_dat_i[29] 18.6612 
*END

*D_NET *598 0.0175278
*CONN
*P wbs_dat_i[2] I
*I *646:io_wbs_dat_i[2] I *D CaravelTopLevel
*CAP
1 wbs_dat_i[2] 0.00371059
2 *646:io_wbs_dat_i[2] 0.00371059
3 *646:io_wbs_dat_i[2] wbs_dat_o[0] 0.00433234
4 *646:io_wbs_dat_i[2] *634:11 0.000580797
5 *646:io_wbs_dat_i[2] *643:13 0.00103254
6 wbs_ack_o *646:io_wbs_dat_i[2] 0.00159893
7 *646:io_wbs_adr_i[3] *646:io_wbs_dat_i[2] 0.00121295
8 *570:9 *646:io_wbs_dat_i[2] 0.000140716
9 *587:9 *646:io_wbs_dat_i[2] 0.00120834
*RES
1 wbs_dat_i[2] *646:io_wbs_dat_i[2] 23.8182 
*END

*D_NET *599 0.0129562
*CONN
*P wbs_dat_i[30] I
*I *646:io_wbs_dat_i[30] I *D CaravelTopLevel
*CAP
1 wbs_dat_i[30] 0.0022385
2 *646:io_wbs_dat_i[30] 0.0022385
3 *646:io_wbs_dat_i[30] wbs_dat_o[27] 0.00109679
4 *646:io_wbs_dat_i[30] wbs_dat_o[29] 0.000420803
5 *646:io_wbs_dat_i[30] *631:13 0.00013207
6 *646:io_wbs_dat_i[30] *632:15 0.00045077
7 *646:io_la_data_in[0] *646:io_wbs_dat_i[30] 0.00227804
8 *646:io_la_data_in[1] *646:io_wbs_dat_i[30] 0.000731146
9 *646:io_wbs_adr_i[27] *646:io_wbs_dat_i[30] 0
10 *646:io_wbs_dat_i[29] *646:io_wbs_dat_i[30] 0.00336957
*RES
1 wbs_dat_i[30] *646:io_wbs_dat_i[30] 18.5972 
*END

*D_NET *600 0.0107334
*CONN
*P wbs_dat_i[31] I
*I *646:io_wbs_dat_i[31] I *D CaravelTopLevel
*CAP
1 wbs_dat_i[31] 0.000458722
2 *646:io_wbs_dat_i[31] 0.00100725
3 *600:9 0.00146598
4 *646:io_wbs_dat_i[31] *631:13 0.00196334
5 *646:io_wbs_dat_i[31] *632:15 0.00393487
6 *646:io_la_data_in[0] *646:io_wbs_dat_i[31] 0.000180279
7 *646:io_la_data_in[1] *646:io_wbs_dat_i[31] 0.000245023
8 *646:io_la_oenb[1] *646:io_wbs_dat_i[31] 0.00105783
9 *646:io_wbs_adr_i[28] *600:9 0.00042007
10 *646:io_wbs_dat_i[28] *600:9 0
*RES
1 wbs_dat_i[31] *600:9 12.23 
2 *600:9 *646:io_wbs_dat_i[31] 44.3075 
*END

*D_NET *601 0.0159678
*CONN
*P wbs_dat_i[3] I
*I *646:io_wbs_dat_i[3] I *D CaravelTopLevel
*CAP
1 wbs_dat_i[3] 0.00102988
2 *646:io_wbs_dat_i[3] 0.000257109
3 *601:13 0.00153147
4 *601:11 0.00230424
5 *601:11 *641:9 0.000525351
6 *601:11 *644:9 0.000385464
7 *601:13 *603:9 0.00374801
8 *601:13 *630:11 0.000779292
9 *601:13 *641:9 0.00313008
10 *646:io_wbs_adr_i[2] *601:11 0.000118286
11 *646:io_wbs_adr_i[2] *601:13 0.000595989
12 *646:io_wbs_adr_i[3] *646:io_wbs_dat_i[3] 0
13 *646:io_wbs_adr_i[3] *601:13 0.000202771
14 *646:io_wbs_cyc_i *601:11 3.59531e-06
15 *572:15 *601:13 0.00135622
*RES
1 wbs_dat_i[3] *601:11 23.7275 
2 *601:11 *601:13 53.7525 
3 *601:13 *646:io_wbs_dat_i[3] 4.0025 
*END

*D_NET *602 0.0134617
*CONN
*P wbs_dat_i[4] I
*I *646:io_wbs_dat_i[4] I *D CaravelTopLevel
*CAP
1 wbs_dat_i[4] 0.00343594
2 *646:io_wbs_dat_i[4] 0.00343594
3 *646:io_wbs_dat_i[4] wbs_dat_o[1] 0.000564161
4 *646:io_wbs_dat_i[4] *607:11 0
5 *646:io_wbs_adr_i[1] *646:io_wbs_dat_i[4] 0.00108812
6 *646:io_wbs_adr_i[4] *646:io_wbs_dat_i[4] 0.000215454
7 *646:io_wbs_adr_i[6] *646:io_wbs_dat_i[4] 0.00472209
8 *646:io_wbs_adr_i[9] *646:io_wbs_dat_i[4] 0
*RES
1 wbs_dat_i[4] *646:io_wbs_dat_i[4] 25.7183 
*END

*D_NET *603 0.0154702
*CONN
*P wbs_dat_i[5] I
*I *646:io_wbs_dat_i[5] I *D CaravelTopLevel
*CAP
1 wbs_dat_i[5] 0.00194254
2 *646:io_wbs_dat_i[5] 0.00186335
3 *603:9 0.00380589
4 *646:io_wbs_dat_i[5] *639:11 0.000505378
5 *646:io_wbs_adr_i[1] *603:9 0
6 *646:io_wbs_adr_i[2] *603:9 0.000439381
7 *646:io_wbs_adr_i[3] *603:9 0.00066367
8 *544:7 *646:io_wbs_dat_i[5] 0
9 *572:15 *603:9 0.000216216
10 *572:19 *646:io_wbs_dat_i[5] 0.00228573
11 *573:15 *646:io_wbs_dat_i[5] 0
12 *577:7 *646:io_wbs_dat_i[5] 0
13 *601:13 *603:9 0.00374801
*RES
1 wbs_dat_i[5] *603:9 49.415 
2 *603:9 *646:io_wbs_dat_i[5] 46.2375 
*END

*D_NET *604 0.0163005
*CONN
*P wbs_dat_i[6] I
*I *646:io_wbs_dat_i[6] I *D CaravelTopLevel
*CAP
1 wbs_dat_i[6] 0.00259681
2 *646:io_wbs_dat_i[6] 0.00259681
3 *646:io_wbs_adr_i[11] *646:io_wbs_dat_i[6] 0.000366281
4 *646:io_wbs_adr_i[4] *646:io_wbs_dat_i[6] 0.00396598
5 *646:io_wbs_adr_i[6] *646:io_wbs_dat_i[6] 0.00677462
*RES
1 wbs_dat_i[6] *646:io_wbs_dat_i[6] 23.7798 
*END

*D_NET *605 0.0152954
*CONN
*P wbs_dat_i[7] I
*I *646:io_wbs_dat_i[7] I *D CaravelTopLevel
*CAP
1 wbs_dat_i[7] 0.000608002
2 *646:io_wbs_dat_i[7] 0.000183036
3 *605:9 0.00166967
4 *605:7 0.00209464
5 *605:9 *607:13 0.000132512
6 *605:9 *609:11 0.00191367
7 *605:9 *635:11 0.00445367
8 *646:io_wbs_adr_i[11] *605:9 0.000202805
9 *646:io_wbs_adr_i[3] *605:9 0.000110612
10 *646:io_wbs_adr_i[9] *605:9 0.000467689
11 *544:9 *605:9 0.00165977
12 *572:15 *605:9 0.00179933
*RES
1 wbs_dat_i[7] *605:7 12.125 
2 *605:7 *605:9 61.86 
3 *605:9 *646:io_wbs_dat_i[7] 3.4925 
*END

*D_NET *606 0.0155694
*CONN
*P wbs_dat_i[8] I
*I *646:io_wbs_dat_i[8] I *D CaravelTopLevel
*CAP
1 wbs_dat_i[8] 0.00074959
2 *646:io_wbs_dat_i[8] 0.000129402
3 *606:13 0.00121993
4 *606:11 0.00184011
5 *606:13 *607:11 0.000188624
6 *606:13 *607:13 0.00237192
7 *606:13 *643:13 0.000272903
8 *646:io_wbs_adr_i[9] *606:13 0.000995018
9 *570:9 *606:13 0.00203334
10 *572:15 *606:11 0
11 *573:15 *606:13 5.95938e-05
12 *573:17 *606:13 0.00570892
*RES
1 wbs_dat_i[8] *606:11 14.645 
2 *606:11 *606:13 60.135 
3 *606:13 *646:io_wbs_dat_i[8] 3.4925 
*END

*D_NET *607 0.0142674
*CONN
*P wbs_dat_i[9] I
*I *646:io_wbs_dat_i[9] I *D CaravelTopLevel
*CAP
1 wbs_dat_i[9] 0.00083043
2 *646:io_wbs_dat_i[9] 0.000140878
3 *607:13 0.00126556
4 *607:11 0.00195511
5 *607:11 *634:11 0.000235346
6 *607:11 *635:11 0.00115459
7 *607:13 *609:11 0.000875663
8 *607:13 *610:11 0.00312254
9 *607:13 *612:11 0.000157646
10 *607:13 *635:11 0.000251893
11 *646:io_wbs_adr_i[11] *607:13 0.000205162
12 *646:io_wbs_adr_i[9] *607:11 0.000223067
13 *646:io_wbs_adr_i[9] *607:13 0.000891149
14 *646:io_wbs_dat_i[4] *607:11 0
15 *570:9 *607:11 0.000265289
16 *605:9 *607:13 0.000132512
17 *606:13 *607:11 0.000188624
18 *606:13 *607:13 0.00237192
*RES
1 wbs_dat_i[9] *607:11 23.6225 
2 *607:11 *607:13 49.6125 
3 *607:13 *646:io_wbs_dat_i[9] 3.4925 
*END

*D_NET *608 0.0205254
*CONN
*P wbs_dat_o[0] O
*I *646:io_wbs_dat_o[0] O *D CaravelTopLevel
*CAP
1 wbs_dat_o[0] 0.00287485
2 *646:io_wbs_dat_o[0] 0.00287485
3 wbs_dat_o[0] *640:9 0.00122523
4 wbs_dat_o[0] *645:9 0.00140124
5 wbs_ack_o wbs_dat_o[0] 0.0018753
6 *646:io_wb_clk_i wbs_dat_o[0] 0.00412064
7 *646:io_wbs_adr_i[2] wbs_dat_o[0] 0.000280108
8 *646:io_wbs_adr_i[3] wbs_dat_o[0] 0.00154082
9 *646:io_wbs_dat_i[2] wbs_dat_o[0] 0.00433234
*RES
1 *646:io_wbs_dat_o[0] wbs_dat_o[0] 23.6578 
*END

*D_NET *609 0.0166401
*CONN
*P wbs_dat_o[10] O
*I *646:io_wbs_dat_o[10] O *D CaravelTopLevel
*CAP
1 wbs_dat_o[10] 0.000425739
2 *646:io_wbs_dat_o[10] 0.000207275
3 *609:11 0.00139393
4 *609:9 0.00117547
5 wbs_dat_o[10] *638:25 0.00036385
6 *609:11 *610:11 0.00491811
7 *609:11 *611:11 0.00352103
8 *646:io_wbs_adr_i[11] *609:11 0.000534176
9 *646:io_wbs_adr_i[6] wbs_dat_o[10] 0.000119155
10 *646:io_wbs_adr_i[9] *609:11 0.000633592
11 *544:9 *609:11 9.55262e-06
12 *546:9 *609:11 0.000548904
13 *605:9 *609:11 0.00191367
14 *607:13 *609:11 0.000875663
*RES
1 *646:io_wbs_dat_o[10] *609:9 3.4925 
2 *609:9 *609:11 59.1 
3 *609:11 wbs_dat_o[10] 12.38 
*END

*D_NET *610 0.0161698
*CONN
*P wbs_dat_o[11] O
*I *646:io_wbs_dat_o[11] O *D CaravelTopLevel
*CAP
1 wbs_dat_o[11] 0.000533459
2 *646:io_wbs_dat_o[11] 0.000161148
3 *610:11 0.00146323
4 *610:9 0.00109092
5 *610:11 wbs_dat_o[15] 0.000101907
6 *610:11 *611:11 0.000784106
7 *610:11 *612:11 0.00028795
8 *610:11 *613:11 0.00199588
9 *646:io_wbs_adr_i[11] *610:11 0.000151497
10 *646:io_wbs_adr_i[7] wbs_dat_o[11] 0.000612146
11 *646:io_wbs_adr_i[9] *610:11 0.000685235
12 *581:9 *610:11 0.000261612
13 *607:13 *610:11 0.00312254
14 *609:11 *610:11 0.00491811
*RES
1 *646:io_wbs_dat_o[11] *610:9 3.4925 
2 *610:9 *610:11 57.72 
3 *610:11 wbs_dat_o[11] 13.445 
*END

*D_NET *611 0.0154332
*CONN
*P wbs_dat_o[12] O
*I *646:io_wbs_dat_o[12] O *D CaravelTopLevel
*CAP
1 wbs_dat_o[12] 0.000591534
2 *646:io_wbs_dat_o[12] 0.000179707
3 *611:11 0.00158534
4 *611:9 0.00117351
5 *611:11 wbs_dat_o[15] 0.00022443
6 *611:11 wbs_dat_o[16] 0.000422984
7 *611:11 *613:11 0.000179684
8 *646:io_wbs_adr_i[11] *611:11 0.000639259
9 *546:9 *611:11 0.00534946
10 *582:9 *611:11 0.0002546
11 *583:9 *611:11 0.000527586
12 *609:11 *611:11 0.00352103
13 *610:11 *611:11 0.000784106
*RES
1 *646:io_wbs_dat_o[12] *611:9 3.4925 
2 *611:9 *611:11 57.375 
3 *611:11 wbs_dat_o[12] 12.125 
*END

*D_NET *612 0.0145062
*CONN
*P wbs_dat_o[13] O
*I *646:io_wbs_dat_o[13] O *D CaravelTopLevel
*CAP
1 wbs_dat_o[13] 0.000703763
2 *646:io_wbs_dat_o[13] 0.000188977
3 *612:11 0.00192127
4 *612:9 0.00140649
5 *646:io_wbs_adr_i[16] *612:11 0.000483663
6 *549:9 *612:11 0.00420954
7 *581:9 *612:11 0.00514686
8 *607:13 *612:11 0.000157646
9 *610:11 *612:11 0.00028795
*RES
1 *646:io_wbs_dat_o[13] *612:9 3.4925 
2 *612:9 *612:11 56.34 
3 *612:11 wbs_dat_o[13] 13.4 
*END

*D_NET *613 0.0158171
*CONN
*P wbs_dat_o[14] O
*I *646:io_wbs_dat_o[14] O *D CaravelTopLevel
*CAP
1 wbs_dat_o[14] 0.000668205
2 *646:io_wbs_dat_o[14] 0.000152247
3 *613:11 0.00150162
4 *613:9 0.000985658
5 *646:io_wbs_adr_i[10] wbs_dat_o[14] 0
6 *646:io_wbs_adr_i[11] *613:11 0.00013988
7 *646:io_wbs_adr_i[16] *613:11 0.00080484
8 *646:io_wbs_dat_i[10] wbs_dat_o[14] 0
9 *549:9 *613:11 0.000183334
10 *581:9 *613:11 0.00559538
11 *583:9 *613:11 0.00361037
12 *610:11 *613:11 0.00199588
13 *611:11 *613:11 0.000179684
*RES
1 *646:io_wbs_dat_o[14] *613:9 3.4925 
2 *613:9 *613:11 55.65 
3 *613:11 wbs_dat_o[14] 12.89 
*END

*D_NET *614 0.0170755
*CONN
*P wbs_dat_o[15] O
*I *646:io_wbs_dat_o[15] O *D CaravelTopLevel
*CAP
1 wbs_dat_o[15] 0.00399713
2 *646:io_wbs_dat_o[15] 0.00399713
3 wbs_dat_o[15] *615:13 0.000350294
4 *646:io_wbs_adr_i[14] wbs_dat_o[15] 0
5 *646:io_wbs_adr_i[16] wbs_dat_o[15] 0.00567609
6 *646:io_wbs_dat_i[11] wbs_dat_o[15] 0.000365736
7 *546:9 wbs_dat_o[15] 0.000101386
8 *551:9 wbs_dat_o[15] 0.00138272
9 *582:9 wbs_dat_o[15] 0.000878725
10 *610:11 wbs_dat_o[15] 0.000101907
11 *611:11 wbs_dat_o[15] 0.00022443
*RES
1 *646:io_wbs_dat_o[15] wbs_dat_o[15] 20.7531 
*END

*D_NET *615 0.0129591
*CONN
*P wbs_dat_o[16] O
*I *646:io_wbs_dat_o[16] O *D CaravelTopLevel
*CAP
1 wbs_dat_o[16] 0.000620898
2 *646:io_wbs_dat_o[16] 0.000933632
3 *615:13 0.00155453
4 *615:13 *617:11 0.00292844
5 *615:13 *618:11 0.00150744
6 wbs_dat_o[15] *615:13 0.000350294
7 *646:io_wbs_dat_i[12] wbs_dat_o[16] 0.000369813
8 *551:9 *615:13 0.000116583
9 *582:9 wbs_dat_o[16] 0.00122783
10 *582:9 *615:13 0.00163018
11 *583:9 wbs_dat_o[16] 0.000322546
12 *583:9 *615:13 0.000973929
13 *611:11 wbs_dat_o[16] 0.000422984
*RES
1 *646:io_wbs_dat_o[16] *615:13 46.22 
2 *615:13 wbs_dat_o[16] 23.1875 
*END

*D_NET *616 0.00988826
*CONN
*P wbs_dat_o[17] O
*I *646:io_wbs_dat_o[17] O *D CaravelTopLevel
*CAP
1 wbs_dat_o[17] 0.000684272
2 *646:io_wbs_dat_o[17] 0.00012725
3 *616:11 0.00271032
4 *616:9 0.0021533
5 *646:io_wbs_adr_i[16] *616:11 0.000473283
6 *646:io_wbs_dat_i[13] wbs_dat_o[17] 0.000222863
7 *549:9 *616:11 0.00203519
8 *583:9 *616:11 2.90737e-05
9 *586:9 *616:11 0.0011833
10 *589:9 *616:11 0.0002694
*RES
1 *646:io_wbs_dat_o[17] *616:9 3.4925 
2 *616:9 *616:11 51.855 
3 *616:11 wbs_dat_o[17] 15.155 
*END

*D_NET *617 0.0131436
*CONN
*P wbs_dat_o[18] O
*I *646:io_wbs_dat_o[18] O *D CaravelTopLevel
*CAP
1 wbs_dat_o[18] 0.0006028
2 *646:io_wbs_dat_o[18] 0.000179413
3 *617:11 0.00153178
4 *617:9 0.00110839
5 *617:11 wbs_dat_o[21] 0.00131812
6 *617:11 *618:11 0.00080067
7 *646:io_wbs_adr_i[16] *617:11 0.000475956
8 *557:13 *617:11 0.000721984
9 *583:9 *617:11 0.00248476
10 *586:9 *617:11 0.000991328
11 *615:13 *617:11 0.00292844
*RES
1 *646:io_wbs_dat_o[18] *617:9 3.4925 
2 *617:9 *617:11 51.855 
3 *617:11 wbs_dat_o[18] 12.38 
*END

*D_NET *618 0.0133717
*CONN
*P wbs_dat_o[19] O
*I *646:io_wbs_dat_o[19] O *D CaravelTopLevel
*CAP
1 wbs_dat_o[19] 0.000566115
2 *646:io_wbs_dat_o[19] 0.000195095
3 *618:11 0.00142824
4 *618:9 0.00105722
5 *618:11 wbs_dat_o[21] 0.00189613
6 *618:11 wbs_dat_o[22] 0.000127647
7 *618:11 *621:13 0.000312805
8 *646:io_wbs_adr_i[16] *618:11 0.000104419
9 *551:9 *618:11 0.000571855
10 *588:9 *618:11 0.00456982
11 *591:7 *618:9 0
12 *591:13 *618:11 0.00023422
13 *615:13 *618:11 0.00150744
14 *617:11 *618:11 0.00080067
*RES
1 *646:io_wbs_dat_o[19] *618:9 3.7475 
2 *618:9 *618:11 51.165 
3 *618:11 wbs_dat_o[19] 11.87 
*END

*D_NET *619 0.0163765
*CONN
*P wbs_dat_o[1] O
*I *646:io_wbs_dat_o[1] O *D CaravelTopLevel
*CAP
1 wbs_dat_o[1] 0.00316442
2 *646:io_wbs_dat_o[1] 0.00316442
3 wbs_dat_o[1] wbs_dat_o[5] 0
4 *646:io_wbs_adr_i[1] wbs_dat_o[1] 0.00685451
5 *646:io_wbs_adr_i[4] wbs_dat_o[1] 0.00262895
6 *646:io_wbs_dat_i[4] wbs_dat_o[1] 0.000564161
*RES
1 *646:io_wbs_dat_o[1] wbs_dat_o[1] 24.8823 
*END

*D_NET *620 0.0137001
*CONN
*P wbs_dat_o[20] O
*I *646:io_wbs_dat_o[20] O *D CaravelTopLevel
*CAP
1 wbs_dat_o[20] 0.00181913
2 *646:io_wbs_dat_o[20] 0.00181913
3 wbs_dat_o[20] wbs_dat_o[24] 0
4 *646:io_wbs_adr_i[19] wbs_dat_o[20] 0.00334955
5 *646:io_wbs_adr_i[20] wbs_dat_o[20] 0.004751
6 *646:io_wbs_adr_i[21] wbs_dat_o[20] 0.00135999
7 *646:io_wbs_adr_i[24] wbs_dat_o[20] 0.000140361
8 *646:io_wbs_dat_i[20] wbs_dat_o[20] 0
9 *646:io_wbs_dat_i[22] wbs_dat_o[20] 0.000198005
10 *646:io_wbs_dat_i[24] wbs_dat_o[20] 0.000262928
*RES
1 *646:io_wbs_dat_o[20] wbs_dat_o[20] 21.1042 
*END

*D_NET *621 0.0141629
*CONN
*P wbs_dat_o[21] O
*I *646:io_wbs_dat_o[21] O *D CaravelTopLevel
*CAP
1 wbs_dat_o[21] 0.000904659
2 *646:io_wbs_dat_o[21] 0.000655491
3 *621:13 0.00156015
4 *621:13 wbs_dat_o[22] 0.000778699
5 *557:13 wbs_dat_o[21] 0.000330062
6 *557:13 *621:13 0.00348077
7 *591:13 *621:13 0.00292606
8 *617:11 wbs_dat_o[21] 0.00131812
9 *618:11 wbs_dat_o[21] 0.00189613
10 *618:11 *621:13 0.000312805
*RES
1 *646:io_wbs_dat_o[21] *621:13 35.87 
2 *621:13 wbs_dat_o[21] 29.6525 
*END

*D_NET *622 0.0153499
*CONN
*P wbs_dat_o[22] O
*I *646:io_wbs_dat_o[22] O *D CaravelTopLevel
*CAP
1 wbs_dat_o[22] 0.00501995
2 *646:io_wbs_dat_o[22] 0.00501995
3 wbs_dat_o[22] *623:11 0.000805026
4 wbs_dat_o[22] *624:13 0.000694891
5 wbs_dat_o[22] *625:11 0.000232344
6 *646:io_wbs_adr_i[19] wbs_dat_o[22] 0
7 *557:13 wbs_dat_o[22] 0.0010586
8 *586:9 wbs_dat_o[22] 0.000131882
9 *588:9 wbs_dat_o[22] 0.000527133
10 *589:9 wbs_dat_o[22] 0.000635642
11 *591:13 wbs_dat_o[22] 0.000318155
12 *618:11 wbs_dat_o[22] 0.000127647
13 *621:13 wbs_dat_o[22] 0.000778699
*RES
1 *646:io_wbs_dat_o[22] wbs_dat_o[22] 20.827 
*END

*D_NET *623 0.0130421
*CONN
*P wbs_dat_o[23] O
*I *646:io_wbs_dat_o[23] O *D CaravelTopLevel
*CAP
1 wbs_dat_o[23] 0.000592884
2 *646:io_wbs_dat_o[23] 0.000132435
3 *623:11 0.00149268
4 *623:9 0.00103223
5 *623:11 *624:13 0.000833679
6 *623:11 *625:11 0.00233118
7 *623:11 *626:11 0.000285476
8 wbs_dat_o[22] *623:11 0.000805026
9 *646:io_wbs_adr_i[20] wbs_dat_o[23] 0
10 *588:9 *623:11 0.000813075
11 *591:13 *623:11 0.00472349
*RES
1 *646:io_wbs_dat_o[23] *623:9 3.4025 
2 *623:9 *623:11 48.06 
3 *623:11 wbs_dat_o[23] 11.87 
*END

*D_NET *624 0.0101511
*CONN
*P wbs_dat_o[24] O
*I *646:io_wbs_dat_o[24] O *D CaravelTopLevel
*CAP
1 wbs_dat_o[24] 0.000445513
2 *646:io_wbs_dat_o[24] 0.000188139
3 *624:13 0.00218107
4 *624:9 0.0019237
5 *624:13 *625:11 0.00363783
6 wbs_dat_o[20] wbs_dat_o[24] 0
7 wbs_dat_o[22] *624:13 0.000694891
8 *646:io_wbs_adr_i[21] wbs_dat_o[24] 0.00024629
9 *623:11 *624:13 0.000833679
*RES
1 *646:io_wbs_dat_o[24] *624:9 4.2575 
2 *624:9 *624:13 48.68 
3 *624:13 wbs_dat_o[24] 9.36 
*END

*D_NET *625 0.0114524
*CONN
*P wbs_dat_o[25] O
*I *646:io_wbs_dat_o[25] O *D CaravelTopLevel
*CAP
1 wbs_dat_o[25] 0.000566163
2 *646:io_wbs_dat_o[25] 0.00125945
3 *625:11 0.00182561
4 *625:11 wbs_dat_o[27] 0.000525401
5 *625:11 *626:11 0.00107439
6 wbs_dat_o[22] *625:11 0.000232344
7 *623:11 *625:11 0.00233118
8 *624:13 *625:11 0.00363783
*RES
1 *646:io_wbs_dat_o[25] *625:11 49.9925 
2 *625:11 wbs_dat_o[25] 11.615 
*END

*D_NET *626 0.00882002
*CONN
*P wbs_dat_o[26] O
*I *646:io_wbs_dat_o[26] O *D CaravelTopLevel
*CAP
1 wbs_dat_o[26] 0.000530187
2 *646:io_wbs_dat_o[26] 0.00215076
3 *626:11 0.00268095
4 *626:11 wbs_dat_o[27] 0.000463223
5 *646:io_wbs_adr_i[23] wbs_dat_o[26] 0.000686629
6 *646:io_wbs_dat_i[29] *626:11 0.000453342
7 *591:13 *626:11 0.000495076
8 *623:11 *626:11 0.000285476
9 *625:11 *626:11 0.00107439
*RES
1 *646:io_wbs_dat_o[26] *626:11 49.4825 
2 *626:11 wbs_dat_o[26] 13.52 
*END

*D_NET *627 0.0105831
*CONN
*P wbs_dat_o[27] O
*I *646:io_wbs_dat_o[27] O *D CaravelTopLevel
*CAP
1 wbs_dat_o[27] 0.00321104
2 *646:io_wbs_dat_o[27] 0.00321104
3 wbs_dat_o[27] wbs_dat_o[28] 0.00011001
4 wbs_dat_o[27] wbs_dat_o[29] 0.000867985
5 *646:io_wbs_adr_i[24] wbs_dat_o[27] 0
6 *646:io_wbs_adr_i[29] wbs_dat_o[27] 0.000314591
7 *646:io_wbs_dat_i[24] wbs_dat_o[27] 0
8 *646:io_wbs_dat_i[27] wbs_dat_o[27] 0
9 *646:io_wbs_dat_i[29] wbs_dat_o[27] 0.000783029
10 *646:io_wbs_dat_i[30] wbs_dat_o[27] 0.00109679
11 *625:11 wbs_dat_o[27] 0.000525401
12 *626:11 wbs_dat_o[27] 0.000463223
*RES
1 *646:io_wbs_dat_o[27] wbs_dat_o[27] 18.9468 
*END

*D_NET *628 0.0117233
*CONN
*P wbs_dat_o[28] O
*I *646:io_wbs_dat_o[28] O *D CaravelTopLevel
*CAP
1 wbs_dat_o[28] 0.00204217
2 *646:io_wbs_dat_o[28] 0.00204217
3 wbs_dat_o[28] wbs_dat_o[31] 0
4 wbs_dat_o[27] wbs_dat_o[28] 0.00011001
5 *646:io_la_data_in[0] wbs_dat_o[28] 8.95485e-05
6 *646:io_wbs_adr_i[25] wbs_dat_o[28] 0
7 *646:io_wbs_adr_i[28] wbs_dat_o[28] 0
8 *646:io_wbs_adr_i[29] wbs_dat_o[28] 0.00441614
9 *646:io_wbs_dat_i[25] wbs_dat_o[28] 0
10 *646:io_wbs_dat_i[27] wbs_dat_o[28] 0.00302323
*RES
1 *646:io_wbs_dat_o[28] wbs_dat_o[28] 19.6521 
*END

*D_NET *629 0.0100704
*CONN
*P wbs_dat_o[29] O
*I *646:io_wbs_dat_o[29] O *D CaravelTopLevel
*CAP
1 wbs_dat_o[29] 0.0019259
2 *646:io_wbs_dat_o[29] 0.0019259
3 la_data_out[0] wbs_dat_o[29] 0.000320399
4 wbs_dat_o[27] wbs_dat_o[29] 0.000867985
5 *646:io_la_data_in[0] wbs_dat_o[29] 0.000525848
6 *646:io_la_data_in[1] wbs_dat_o[29] 0
7 *646:io_wbs_adr_i[26] wbs_dat_o[29] 0
8 *646:io_wbs_adr_i[29] wbs_dat_o[29] 0.00383445
9 *646:io_wbs_dat_i[26] wbs_dat_o[29] 0.000249119
10 *646:io_wbs_dat_i[30] wbs_dat_o[29] 0.000420803
11 *400:7 wbs_dat_o[29] 0
*RES
1 *646:io_wbs_dat_o[29] wbs_dat_o[29] 19.764 
*END

*D_NET *630 0.0173364
*CONN
*P wbs_dat_o[2] O
*I *646:io_wbs_dat_o[2] O *D CaravelTopLevel
*CAP
1 wbs_dat_o[2] 0.000598891
2 *646:io_wbs_dat_o[2] 0.000148658
3 *630:11 0.00176954
4 *630:9 0.00131931
5 *630:11 *633:11 0.00173943
6 *630:11 *635:11 0.00198878
7 *630:11 *641:9 0.00587294
8 *630:11 *645:9 0.00228821
9 *646:io_wbs_adr_i[3] *630:11 0.000783521
10 *572:15 *630:11 4.77807e-05
11 *601:13 *630:11 0.000779292
*RES
1 *646:io_wbs_dat_o[2] *630:9 3.1475 
2 *630:9 *630:11 67.035 
3 *630:11 wbs_dat_o[2] 12.125 
*END

*D_NET *631 0.00891984
*CONN
*P wbs_dat_o[30] O
*I *646:io_wbs_dat_o[30] O *D CaravelTopLevel
*CAP
1 wbs_dat_o[30] 0.000668512
2 *646:io_wbs_dat_o[30] 0.00196349
3 *631:13 0.002632
4 *646:io_la_data_in[1] *631:13 0.000247298
5 *646:io_la_oenb[1] *631:13 0.000160338
6 *646:io_wbs_adr_i[27] wbs_dat_o[30] 0
7 *646:io_wbs_dat_i[27] wbs_dat_o[30] 0.000187771
8 *646:io_wbs_dat_i[29] *631:13 0.000965021
9 *646:io_wbs_dat_i[30] *631:13 0.00013207
10 *646:io_wbs_dat_i[31] *631:13 0.00196334
*RES
1 *646:io_wbs_dat_o[30] *631:13 47.6875 
2 *631:13 wbs_dat_o[30] 11.94 
*END

*D_NET *632 0.0113377
*CONN
*P wbs_dat_o[31] O
*I *646:io_wbs_dat_o[31] O *D CaravelTopLevel
*CAP
1 wbs_dat_o[31] 0.000420052
2 *646:io_wbs_dat_o[31] 0.00108989
3 *632:15 0.00150994
4 wbs_dat_o[28] wbs_dat_o[31] 0
5 *646:io_la_data_in[1] *632:15 0.000350294
6 *646:io_la_oenb[0] *632:15 0.00296535
7 *646:io_la_oenb[1] *632:15 0.000263368
8 *646:io_wbs_dat_i[28] wbs_dat_o[31] 0.000353204
9 *646:io_wbs_dat_i[30] *632:15 0.00045077
10 *646:io_wbs_dat_i[31] *632:15 0.00393487
*RES
1 *646:io_wbs_dat_o[31] *632:15 46.5775 
2 *632:15 wbs_dat_o[31] 9.615 
*END

*D_NET *633 0.0166108
*CONN
*P wbs_dat_o[3] O
*I *646:io_wbs_dat_o[3] O *D CaravelTopLevel
*CAP
1 wbs_dat_o[3] 0.000696537
2 *646:io_wbs_dat_o[3] 0.000183773
3 *633:11 0.00182039
4 *633:9 0.00130762
5 wbs_dat_o[3] *646:io_wbs_sel_i[0] 0
6 wbs_dat_o[3] *646:io_wbs_stb_i 0
7 *633:11 *634:11 0.00517972
8 *633:11 *635:11 0.00375688
9 *633:11 *640:9 0.000196669
10 *633:11 *645:9 0.000269931
11 *646:io_wbs_adr_i[3] *633:11 0.000791703
12 *587:9 *633:11 0.000668104
13 *630:11 *633:11 0.00173943
*RES
1 *646:io_wbs_dat_o[3] *633:9 3.4925 
2 *633:9 *633:11 64.62 
3 *633:11 wbs_dat_o[3] 13.535 
*END

*D_NET *634 0.0177948
*CONN
*P wbs_dat_o[4] O
*I *646:io_wbs_dat_o[4] O *D CaravelTopLevel
*CAP
1 wbs_dat_o[4] 0.000647485
2 *646:io_wbs_dat_o[4] 0.000208444
3 *634:11 0.00164532
4 *634:9 0.00120628
5 wbs_dat_o[4] *646:io_wbs_sel_i[0] 0
6 *634:11 *635:11 0.000913896
7 *646:io_wbs_adr_i[3] *634:11 0.000243712
8 *646:io_wbs_adr_i[9] *634:11 0.000160066
9 *646:io_wbs_dat_i[2] *634:11 0.000580797
10 *570:9 *634:11 0.00648926
11 *587:9 *634:11 0.000284459
12 *607:11 *634:11 0.000235346
13 *633:11 *634:11 0.00517972
*RES
1 *646:io_wbs_dat_o[4] *634:9 3.4925 
2 *634:9 *634:11 64.275 
3 *634:11 wbs_dat_o[4] 12.89 
*END

*D_NET *635 0.0173556
*CONN
*P wbs_dat_o[5] O
*I *646:io_wbs_dat_o[5] O *D CaravelTopLevel
*CAP
1 wbs_dat_o[5] 0.000614945
2 *646:io_wbs_dat_o[5] 0.000139504
3 *635:11 0.00164535
4 *635:9 0.00116991
5 wbs_dat_o[1] wbs_dat_o[5] 0
6 *646:io_wbs_adr_i[3] *635:11 0.000646216
7 *646:io_wbs_adr_i[9] *635:11 0.000363162
8 *572:15 *635:11 0.000256797
9 *605:9 *635:11 0.00445367
10 *607:11 *635:11 0.00115459
11 *607:13 *635:11 0.000251893
12 *630:11 *635:11 0.00198878
13 *633:11 *635:11 0.00375688
14 *634:11 *635:11 0.000913896
*RES
1 *646:io_wbs_dat_o[5] *635:9 3.4925 
2 *635:9 *635:11 63.585 
3 *635:11 wbs_dat_o[5] 12.38 
*END

*D_NET *636 0.0160869
*CONN
*P wbs_dat_o[6] O
*I *646:io_wbs_dat_o[6] O *D CaravelTopLevel
*CAP
1 wbs_dat_o[6] 0.00144881
2 *646:io_wbs_dat_o[6] 0.000723957
3 *636:13 0.00217277
4 wbs_dat_o[6] *637:11 0.00147349
5 wbs_dat_o[6] *642:9 0.000947061
6 wbs_dat_o[6] *643:13 0.000630285
7 *636:13 *637:11 0.000564103
8 *636:13 *638:25 0.00289803
9 *646:io_wbs_adr_i[2] wbs_dat_o[6] 0
10 *646:io_wbs_adr_i[9] *636:13 0.000460456
11 *573:15 wbs_dat_o[6] 0.000871391
12 *573:15 *636:13 8.87452e-06
13 *573:17 wbs_dat_o[6] 1.5379e-05
14 *573:17 *636:13 0.00387232
*RES
1 *646:io_wbs_dat_o[6] *636:13 39.4925 
2 *636:13 wbs_dat_o[6] 41.18 
*END

*D_NET *637 0.0117632
*CONN
*P wbs_dat_o[7] O
*I *646:io_wbs_dat_o[7] O *D CaravelTopLevel
*CAP
1 wbs_dat_o[7] 0.000737684
2 *646:io_wbs_dat_o[7] 0.000115943
3 *637:11 0.00300569
4 *637:9 0.00238395
5 *637:11 *638:25 0.00289803
6 wbs_dat_o[6] *637:11 0.00147349
7 *646:io_wbs_adr_i[3] wbs_dat_o[7] 2.92011e-05
8 *573:17 *637:11 0.000555097
9 *636:13 *637:11 0.000564103
*RES
1 *646:io_wbs_dat_o[7] *637:9 3.4925 
2 *637:9 *637:11 61.515 
3 *637:11 wbs_dat_o[7] 14.42 
*END

*D_NET *638 0.0182223
*CONN
*P wbs_dat_o[8] O
*I *646:io_wbs_dat_o[8] O *D CaravelTopLevel
*CAP
1 wbs_dat_o[8] 0.000291006
2 *646:io_wbs_dat_o[8] 0.00151389
3 *638:25 0.00139715
4 *638:13 0.00262003
5 *638:13 *639:11 0.00373742
6 wbs_dat_o[10] *638:25 0.00036385
7 *646:io_wbs_adr_i[4] wbs_dat_o[8] 0
8 *646:io_wbs_adr_i[4] *638:25 0
9 *646:io_wbs_adr_i[6] *638:25 0.000628011
10 *646:io_wbs_adr_i[9] *638:25 0.000337435
11 *572:15 wbs_dat_o[8] 8.85218e-05
12 *572:15 *638:25 0
13 *572:19 *638:13 0.00144895
14 *636:13 *638:25 0.00289803
15 *637:11 *638:25 0.00289803
*RES
1 *646:io_wbs_dat_o[8] *638:13 45.9475 
2 *638:13 *638:25 47.1025 
3 *638:25 wbs_dat_o[8] 5.6625 
*END

*D_NET *639 0.0113813
*CONN
*P wbs_dat_o[9] O
*I *646:io_wbs_dat_o[9] O *D CaravelTopLevel
*CAP
1 wbs_dat_o[9] 0.000272339
2 *646:io_wbs_dat_o[9] 0.000611422
3 *639:11 0.00271545
4 *639:9 0.00305453
5 *646:io_wbs_adr_i[14] *639:9 0
6 *646:io_wbs_dat_i[5] *639:11 0.000505378
7 *544:7 wbs_dat_o[9] 0
8 *572:19 *639:11 0.000484719
9 *581:7 *639:9 0
10 *638:13 *639:11 0.00373742
*RES
1 *646:io_wbs_dat_o[9] *639:9 10.6325 
2 *639:9 *639:11 58.065 
3 *639:11 wbs_dat_o[9] 6.815 
*END

*D_NET *640 0.015052
*CONN
*P wbs_sel_i[0] I
*I *646:io_wbs_sel_i[0] I *D CaravelTopLevel
*CAP
1 wbs_sel_i[0] 0.000640499
2 *646:io_wbs_sel_i[0] 0.00201686
3 *640:9 0.00322859
4 *640:7 0.00185222
5 *646:io_wbs_sel_i[0] *646:io_wbs_we_i 9.47962e-06
6 *646:io_wbs_sel_i[0] *643:11 0
7 *640:9 *645:9 0.00316887
8 wbs_dat_o[0] *640:9 0.00122523
9 wbs_dat_o[3] *646:io_wbs_sel_i[0] 0
10 wbs_dat_o[4] *646:io_wbs_sel_i[0] 0
11 *570:7 *646:io_wbs_sel_i[0] 0
12 *587:9 *640:9 0.00271359
13 *633:11 *640:9 0.000196669
*RES
1 wbs_sel_i[0] *640:7 12.89 
2 *640:7 *640:9 51.51 
3 *640:9 *646:io_wbs_sel_i[0] 38.4675 
*END

*D_NET *641 0.0179493
*CONN
*P wbs_sel_i[1] I
*I *646:io_wbs_sel_i[1] I *D CaravelTopLevel
*CAP
1 wbs_sel_i[1] 0.000571743
2 *646:io_wbs_sel_i[1] 0.000221921
3 *641:9 0.00133314
4 *641:7 0.00168296
5 *641:9 *644:9 0.00326257
6 *641:9 *645:9 0.000833362
7 *646:io_wbs_adr_i[2] *641:9 0.000211067
8 *646:io_wbs_adr_i[3] *641:9 0.000304175
9 *601:11 *641:9 0.000525351
10 *601:13 *641:9 0.00313008
11 *630:11 *641:9 0.00587294
*RES
1 wbs_sel_i[1] *641:7 11.87 
2 *641:7 *641:9 67.38 
3 *641:9 *646:io_wbs_sel_i[1] 3.7475 
*END

*D_NET *642 0.0136301
*CONN
*P wbs_sel_i[2] I
*I *646:io_wbs_sel_i[2] I *D CaravelTopLevel
*CAP
1 wbs_sel_i[2] 0.000663103
2 *646:io_wbs_sel_i[2] 0.000103887
3 *642:9 0.0023157
4 *642:7 0.00287492
5 *642:9 *643:13 0.00518618
6 wbs_dat_o[6] *642:9 0.000947061
7 *646:io_wb_rst_i *642:7 0.000349765
8 *587:9 *642:9 0.00118949
*RES
1 wbs_sel_i[2] *642:7 13.91 
2 *642:7 *642:9 66.345 
3 *642:9 *646:io_wbs_sel_i[2] 3.4925 
*END

*D_NET *643 0.0169264
*CONN
*P wbs_sel_i[3] I
*I *646:io_wbs_sel_i[3] I *D CaravelTopLevel
*CAP
1 wbs_sel_i[3] 0.000774324
2 *646:io_wbs_sel_i[3] 0.00013373
3 *643:13 0.0012024
4 *643:11 0.00184299
5 wbs_dat_o[6] *643:13 0.000630285
6 *646:io_wbs_adr_i[0] *643:11 0
7 *646:io_wbs_adr_i[3] *643:13 0.000104198
8 *646:io_wbs_dat_i[2] *643:13 0.00103254
9 *646:io_wbs_sel_i[0] *643:11 0
10 *570:9 *643:13 0.00250199
11 *573:15 *643:13 0.000759446
12 *587:9 *643:13 0.00248538
13 *606:13 *643:13 0.000272903
14 *642:9 *643:13 0.00518618
*RES
1 wbs_sel_i[3] *643:11 14.9 
2 *643:11 *643:13 64.62 
3 *643:13 *646:io_wbs_sel_i[3] 3.1475 
*END

*D_NET *644 0.0180598
*CONN
*P wbs_stb_i I
*I *646:io_wbs_stb_i I *D CaravelTopLevel
*CAP
1 wbs_stb_i 0.000543504
2 *646:io_wbs_stb_i 0.000201203
3 *644:9 0.0015537
4 *644:7 0.00189601
5 *644:9 *645:9 0.00157573
6 wbs_dat_o[3] *646:io_wbs_stb_i 0
7 *646:io_wb_clk_i *644:9 0.000943777
8 *646:io_wbs_adr_i[2] *644:9 0.000542236
9 *575:9 *644:9 0.00715562
10 *601:11 *644:9 0.000385464
11 *641:9 *644:9 0.00326257
*RES
1 wbs_stb_i *644:7 11.615 
2 *644:7 *644:9 70.14 
3 *644:9 *646:io_wbs_stb_i 4.0025 
*END

*D_NET *645 0.0147421
*CONN
*P wbs_we_i I
*I *646:io_wbs_we_i I *D CaravelTopLevel
*CAP
1 wbs_we_i 0.000595248
2 *646:io_wbs_we_i 0.000119775
3 *645:9 0.00190341
4 *645:7 0.00237889
5 wbs_ack_o *645:9 0.000197928
6 wbs_dat_o[0] *645:9 0.00140124
7 *646:io_wbs_sel_i[0] *646:io_wbs_we_i 9.47962e-06
8 *630:11 *645:9 0.00228821
9 *633:11 *645:9 0.000269931
10 *640:9 *645:9 0.00316887
11 *641:9 *645:9 0.000833362
12 *644:9 *645:9 0.00157573
*RES
1 wbs_we_i *645:7 12.38 
2 *645:7 *645:9 69.795 
3 *645:9 *646:io_wbs_we_i 3.4925 
*END
