*SPEF "ieee 1481-1999"
*DESIGN "user_project_wrapper"
*DATE "11:11:11 Fri 11 11, 1111"
*VENDOR "OpenRCX"
*PROGRAM "Parallel Extraction"
*VERSION "1.0"
*DESIGN_FLOW "NAME_SCOPE LOCAL" "PIN_CAP NONE"
*DIVIDER /
*DELIMITER :
*BUS_DELIMITER []
*T_UNIT 1 NS
*C_UNIT 1 PF
*R_UNIT 1 OHM
*L_UNIT 1 HENRY

*NAME_MAP
*1 analog_io[0]
*2 analog_io[10]
*3 analog_io[11]
*4 analog_io[12]
*5 analog_io[13]
*6 analog_io[14]
*7 analog_io[15]
*8 analog_io[16]
*9 analog_io[17]
*10 analog_io[18]
*11 analog_io[19]
*12 analog_io[1]
*13 analog_io[20]
*14 analog_io[21]
*15 analog_io[22]
*16 analog_io[23]
*17 analog_io[24]
*18 analog_io[25]
*19 analog_io[26]
*20 analog_io[27]
*21 analog_io[28]
*22 analog_io[2]
*23 analog_io[3]
*24 analog_io[4]
*25 analog_io[5]
*26 analog_io[6]
*27 analog_io[7]
*28 analog_io[8]
*29 analog_io[9]
*30 io_in[0]
*31 io_in[10]
*32 io_in[11]
*33 io_in[12]
*34 io_in[13]
*35 io_in[14]
*36 io_in[15]
*37 io_in[16]
*38 io_in[17]
*39 io_in[18]
*40 io_in[19]
*41 io_in[1]
*42 io_in[20]
*43 io_in[21]
*44 io_in[22]
*45 io_in[23]
*46 io_in[24]
*47 io_in[25]
*48 io_in[26]
*49 io_in[27]
*50 io_in[28]
*51 io_in[29]
*52 io_in[2]
*53 io_in[30]
*54 io_in[31]
*55 io_in[32]
*56 io_in[33]
*57 io_in[34]
*58 io_in[35]
*59 io_in[36]
*60 io_in[37]
*61 io_in[3]
*62 io_in[4]
*63 io_in[5]
*64 io_in[6]
*65 io_in[7]
*66 io_in[8]
*67 io_in[9]
*68 io_oeb[0]
*69 io_oeb[10]
*70 io_oeb[11]
*71 io_oeb[12]
*72 io_oeb[13]
*73 io_oeb[14]
*74 io_oeb[15]
*75 io_oeb[16]
*76 io_oeb[17]
*77 io_oeb[18]
*78 io_oeb[19]
*79 io_oeb[1]
*80 io_oeb[20]
*81 io_oeb[21]
*82 io_oeb[22]
*83 io_oeb[23]
*84 io_oeb[24]
*85 io_oeb[25]
*86 io_oeb[26]
*87 io_oeb[27]
*88 io_oeb[28]
*89 io_oeb[29]
*90 io_oeb[2]
*91 io_oeb[30]
*92 io_oeb[31]
*93 io_oeb[32]
*94 io_oeb[33]
*95 io_oeb[34]
*96 io_oeb[35]
*97 io_oeb[36]
*98 io_oeb[37]
*99 io_oeb[3]
*100 io_oeb[4]
*101 io_oeb[5]
*102 io_oeb[6]
*103 io_oeb[7]
*104 io_oeb[8]
*105 io_oeb[9]
*106 io_out[0]
*107 io_out[10]
*108 io_out[11]
*109 io_out[12]
*110 io_out[13]
*111 io_out[14]
*112 io_out[15]
*113 io_out[16]
*114 io_out[17]
*115 io_out[18]
*116 io_out[19]
*117 io_out[1]
*118 io_out[20]
*119 io_out[21]
*120 io_out[22]
*121 io_out[23]
*122 io_out[24]
*123 io_out[25]
*124 io_out[26]
*125 io_out[27]
*126 io_out[28]
*127 io_out[29]
*128 io_out[2]
*129 io_out[30]
*130 io_out[31]
*131 io_out[32]
*132 io_out[33]
*133 io_out[34]
*134 io_out[35]
*135 io_out[36]
*136 io_out[37]
*137 io_out[3]
*138 io_out[4]
*139 io_out[5]
*140 io_out[6]
*141 io_out[7]
*142 io_out[8]
*143 io_out[9]
*144 la_data_in[0]
*145 la_data_in[100]
*146 la_data_in[101]
*147 la_data_in[102]
*148 la_data_in[103]
*149 la_data_in[104]
*150 la_data_in[105]
*151 la_data_in[106]
*152 la_data_in[107]
*153 la_data_in[108]
*154 la_data_in[109]
*155 la_data_in[10]
*156 la_data_in[110]
*157 la_data_in[111]
*158 la_data_in[112]
*159 la_data_in[113]
*160 la_data_in[114]
*161 la_data_in[115]
*162 la_data_in[116]
*163 la_data_in[117]
*164 la_data_in[118]
*165 la_data_in[119]
*166 la_data_in[11]
*167 la_data_in[120]
*168 la_data_in[121]
*169 la_data_in[122]
*170 la_data_in[123]
*171 la_data_in[124]
*172 la_data_in[125]
*173 la_data_in[126]
*174 la_data_in[127]
*175 la_data_in[12]
*176 la_data_in[13]
*177 la_data_in[14]
*178 la_data_in[15]
*179 la_data_in[16]
*180 la_data_in[17]
*181 la_data_in[18]
*182 la_data_in[19]
*183 la_data_in[1]
*184 la_data_in[20]
*185 la_data_in[21]
*186 la_data_in[22]
*187 la_data_in[23]
*188 la_data_in[24]
*189 la_data_in[25]
*190 la_data_in[26]
*191 la_data_in[27]
*192 la_data_in[28]
*193 la_data_in[29]
*194 la_data_in[2]
*195 la_data_in[30]
*196 la_data_in[31]
*197 la_data_in[32]
*198 la_data_in[33]
*199 la_data_in[34]
*200 la_data_in[35]
*201 la_data_in[36]
*202 la_data_in[37]
*203 la_data_in[38]
*204 la_data_in[39]
*205 la_data_in[3]
*206 la_data_in[40]
*207 la_data_in[41]
*208 la_data_in[42]
*209 la_data_in[43]
*210 la_data_in[44]
*211 la_data_in[45]
*212 la_data_in[46]
*213 la_data_in[47]
*214 la_data_in[48]
*215 la_data_in[49]
*216 la_data_in[4]
*217 la_data_in[50]
*218 la_data_in[51]
*219 la_data_in[52]
*220 la_data_in[53]
*221 la_data_in[54]
*222 la_data_in[55]
*223 la_data_in[56]
*224 la_data_in[57]
*225 la_data_in[58]
*226 la_data_in[59]
*227 la_data_in[5]
*228 la_data_in[60]
*229 la_data_in[61]
*230 la_data_in[62]
*231 la_data_in[63]
*232 la_data_in[64]
*233 la_data_in[65]
*234 la_data_in[66]
*235 la_data_in[67]
*236 la_data_in[68]
*237 la_data_in[69]
*238 la_data_in[6]
*239 la_data_in[70]
*240 la_data_in[71]
*241 la_data_in[72]
*242 la_data_in[73]
*243 la_data_in[74]
*244 la_data_in[75]
*245 la_data_in[76]
*246 la_data_in[77]
*247 la_data_in[78]
*248 la_data_in[79]
*249 la_data_in[7]
*250 la_data_in[80]
*251 la_data_in[81]
*252 la_data_in[82]
*253 la_data_in[83]
*254 la_data_in[84]
*255 la_data_in[85]
*256 la_data_in[86]
*257 la_data_in[87]
*258 la_data_in[88]
*259 la_data_in[89]
*260 la_data_in[8]
*261 la_data_in[90]
*262 la_data_in[91]
*263 la_data_in[92]
*264 la_data_in[93]
*265 la_data_in[94]
*266 la_data_in[95]
*267 la_data_in[96]
*268 la_data_in[97]
*269 la_data_in[98]
*270 la_data_in[99]
*271 la_data_in[9]
*272 la_data_out[0]
*273 la_data_out[100]
*274 la_data_out[101]
*275 la_data_out[102]
*276 la_data_out[103]
*277 la_data_out[104]
*278 la_data_out[105]
*279 la_data_out[106]
*280 la_data_out[107]
*281 la_data_out[108]
*282 la_data_out[109]
*283 la_data_out[10]
*284 la_data_out[110]
*285 la_data_out[111]
*286 la_data_out[112]
*287 la_data_out[113]
*288 la_data_out[114]
*289 la_data_out[115]
*290 la_data_out[116]
*291 la_data_out[117]
*292 la_data_out[118]
*293 la_data_out[119]
*294 la_data_out[11]
*295 la_data_out[120]
*296 la_data_out[121]
*297 la_data_out[122]
*298 la_data_out[123]
*299 la_data_out[124]
*300 la_data_out[125]
*301 la_data_out[126]
*302 la_data_out[127]
*303 la_data_out[12]
*304 la_data_out[13]
*305 la_data_out[14]
*306 la_data_out[15]
*307 la_data_out[16]
*308 la_data_out[17]
*309 la_data_out[18]
*310 la_data_out[19]
*311 la_data_out[1]
*312 la_data_out[20]
*313 la_data_out[21]
*314 la_data_out[22]
*315 la_data_out[23]
*316 la_data_out[24]
*317 la_data_out[25]
*318 la_data_out[26]
*319 la_data_out[27]
*320 la_data_out[28]
*321 la_data_out[29]
*322 la_data_out[2]
*323 la_data_out[30]
*324 la_data_out[31]
*325 la_data_out[32]
*326 la_data_out[33]
*327 la_data_out[34]
*328 la_data_out[35]
*329 la_data_out[36]
*330 la_data_out[37]
*331 la_data_out[38]
*332 la_data_out[39]
*333 la_data_out[3]
*334 la_data_out[40]
*335 la_data_out[41]
*336 la_data_out[42]
*337 la_data_out[43]
*338 la_data_out[44]
*339 la_data_out[45]
*340 la_data_out[46]
*341 la_data_out[47]
*342 la_data_out[48]
*343 la_data_out[49]
*344 la_data_out[4]
*345 la_data_out[50]
*346 la_data_out[51]
*347 la_data_out[52]
*348 la_data_out[53]
*349 la_data_out[54]
*350 la_data_out[55]
*351 la_data_out[56]
*352 la_data_out[57]
*353 la_data_out[58]
*354 la_data_out[59]
*355 la_data_out[5]
*356 la_data_out[60]
*357 la_data_out[61]
*358 la_data_out[62]
*359 la_data_out[63]
*360 la_data_out[64]
*361 la_data_out[65]
*362 la_data_out[66]
*363 la_data_out[67]
*364 la_data_out[68]
*365 la_data_out[69]
*366 la_data_out[6]
*367 la_data_out[70]
*368 la_data_out[71]
*369 la_data_out[72]
*370 la_data_out[73]
*371 la_data_out[74]
*372 la_data_out[75]
*373 la_data_out[76]
*374 la_data_out[77]
*375 la_data_out[78]
*376 la_data_out[79]
*377 la_data_out[7]
*378 la_data_out[80]
*379 la_data_out[81]
*380 la_data_out[82]
*381 la_data_out[83]
*382 la_data_out[84]
*383 la_data_out[85]
*384 la_data_out[86]
*385 la_data_out[87]
*386 la_data_out[88]
*387 la_data_out[89]
*388 la_data_out[8]
*389 la_data_out[90]
*390 la_data_out[91]
*391 la_data_out[92]
*392 la_data_out[93]
*393 la_data_out[94]
*394 la_data_out[95]
*395 la_data_out[96]
*396 la_data_out[97]
*397 la_data_out[98]
*398 la_data_out[99]
*399 la_data_out[9]
*400 la_oenb[0]
*401 la_oenb[100]
*402 la_oenb[101]
*403 la_oenb[102]
*404 la_oenb[103]
*405 la_oenb[104]
*406 la_oenb[105]
*407 la_oenb[106]
*408 la_oenb[107]
*409 la_oenb[108]
*410 la_oenb[109]
*411 la_oenb[10]
*412 la_oenb[110]
*413 la_oenb[111]
*414 la_oenb[112]
*415 la_oenb[113]
*416 la_oenb[114]
*417 la_oenb[115]
*418 la_oenb[116]
*419 la_oenb[117]
*420 la_oenb[118]
*421 la_oenb[119]
*422 la_oenb[11]
*423 la_oenb[120]
*424 la_oenb[121]
*425 la_oenb[122]
*426 la_oenb[123]
*427 la_oenb[124]
*428 la_oenb[125]
*429 la_oenb[126]
*430 la_oenb[127]
*431 la_oenb[12]
*432 la_oenb[13]
*433 la_oenb[14]
*434 la_oenb[15]
*435 la_oenb[16]
*436 la_oenb[17]
*437 la_oenb[18]
*438 la_oenb[19]
*439 la_oenb[1]
*440 la_oenb[20]
*441 la_oenb[21]
*442 la_oenb[22]
*443 la_oenb[23]
*444 la_oenb[24]
*445 la_oenb[25]
*446 la_oenb[26]
*447 la_oenb[27]
*448 la_oenb[28]
*449 la_oenb[29]
*450 la_oenb[2]
*451 la_oenb[30]
*452 la_oenb[31]
*453 la_oenb[32]
*454 la_oenb[33]
*455 la_oenb[34]
*456 la_oenb[35]
*457 la_oenb[36]
*458 la_oenb[37]
*459 la_oenb[38]
*460 la_oenb[39]
*461 la_oenb[3]
*462 la_oenb[40]
*463 la_oenb[41]
*464 la_oenb[42]
*465 la_oenb[43]
*466 la_oenb[44]
*467 la_oenb[45]
*468 la_oenb[46]
*469 la_oenb[47]
*470 la_oenb[48]
*471 la_oenb[49]
*472 la_oenb[4]
*473 la_oenb[50]
*474 la_oenb[51]
*475 la_oenb[52]
*476 la_oenb[53]
*477 la_oenb[54]
*478 la_oenb[55]
*479 la_oenb[56]
*480 la_oenb[57]
*481 la_oenb[58]
*482 la_oenb[59]
*483 la_oenb[5]
*484 la_oenb[60]
*485 la_oenb[61]
*486 la_oenb[62]
*487 la_oenb[63]
*488 la_oenb[64]
*489 la_oenb[65]
*490 la_oenb[66]
*491 la_oenb[67]
*492 la_oenb[68]
*493 la_oenb[69]
*494 la_oenb[6]
*495 la_oenb[70]
*496 la_oenb[71]
*497 la_oenb[72]
*498 la_oenb[73]
*499 la_oenb[74]
*500 la_oenb[75]
*501 la_oenb[76]
*502 la_oenb[77]
*503 la_oenb[78]
*504 la_oenb[79]
*505 la_oenb[7]
*506 la_oenb[80]
*507 la_oenb[81]
*508 la_oenb[82]
*509 la_oenb[83]
*510 la_oenb[84]
*511 la_oenb[85]
*512 la_oenb[86]
*513 la_oenb[87]
*514 la_oenb[88]
*515 la_oenb[89]
*516 la_oenb[8]
*517 la_oenb[90]
*518 la_oenb[91]
*519 la_oenb[92]
*520 la_oenb[93]
*521 la_oenb[94]
*522 la_oenb[95]
*523 la_oenb[96]
*524 la_oenb[97]
*525 la_oenb[98]
*526 la_oenb[99]
*527 la_oenb[9]
*528 user_clock2
*529 user_irq[0]
*530 user_irq[1]
*531 user_irq[2]
*540 wb_clk_i
*541 wb_rst_i
*542 wbs_ack_o
*543 wbs_adr_i[0]
*544 wbs_adr_i[10]
*545 wbs_adr_i[11]
*546 wbs_adr_i[12]
*547 wbs_adr_i[13]
*548 wbs_adr_i[14]
*549 wbs_adr_i[15]
*550 wbs_adr_i[16]
*551 wbs_adr_i[17]
*552 wbs_adr_i[18]
*553 wbs_adr_i[19]
*554 wbs_adr_i[1]
*555 wbs_adr_i[20]
*556 wbs_adr_i[21]
*557 wbs_adr_i[22]
*558 wbs_adr_i[23]
*559 wbs_adr_i[24]
*560 wbs_adr_i[25]
*561 wbs_adr_i[26]
*562 wbs_adr_i[27]
*563 wbs_adr_i[28]
*564 wbs_adr_i[29]
*565 wbs_adr_i[2]
*566 wbs_adr_i[30]
*567 wbs_adr_i[31]
*568 wbs_adr_i[3]
*569 wbs_adr_i[4]
*570 wbs_adr_i[5]
*571 wbs_adr_i[6]
*572 wbs_adr_i[7]
*573 wbs_adr_i[8]
*574 wbs_adr_i[9]
*575 wbs_cyc_i
*576 wbs_dat_i[0]
*577 wbs_dat_i[10]
*578 wbs_dat_i[11]
*579 wbs_dat_i[12]
*580 wbs_dat_i[13]
*581 wbs_dat_i[14]
*582 wbs_dat_i[15]
*583 wbs_dat_i[16]
*584 wbs_dat_i[17]
*585 wbs_dat_i[18]
*586 wbs_dat_i[19]
*587 wbs_dat_i[1]
*588 wbs_dat_i[20]
*589 wbs_dat_i[21]
*590 wbs_dat_i[22]
*591 wbs_dat_i[23]
*592 wbs_dat_i[24]
*593 wbs_dat_i[25]
*594 wbs_dat_i[26]
*595 wbs_dat_i[27]
*596 wbs_dat_i[28]
*597 wbs_dat_i[29]
*598 wbs_dat_i[2]
*599 wbs_dat_i[30]
*600 wbs_dat_i[31]
*601 wbs_dat_i[3]
*602 wbs_dat_i[4]
*603 wbs_dat_i[5]
*604 wbs_dat_i[6]
*605 wbs_dat_i[7]
*606 wbs_dat_i[8]
*607 wbs_dat_i[9]
*608 wbs_dat_o[0]
*609 wbs_dat_o[10]
*610 wbs_dat_o[11]
*611 wbs_dat_o[12]
*612 wbs_dat_o[13]
*613 wbs_dat_o[14]
*614 wbs_dat_o[15]
*615 wbs_dat_o[16]
*616 wbs_dat_o[17]
*617 wbs_dat_o[18]
*618 wbs_dat_o[19]
*619 wbs_dat_o[1]
*620 wbs_dat_o[20]
*621 wbs_dat_o[21]
*622 wbs_dat_o[22]
*623 wbs_dat_o[23]
*624 wbs_dat_o[24]
*625 wbs_dat_o[25]
*626 wbs_dat_o[26]
*627 wbs_dat_o[27]
*628 wbs_dat_o[28]
*629 wbs_dat_o[29]
*630 wbs_dat_o[2]
*631 wbs_dat_o[30]
*632 wbs_dat_o[31]
*633 wbs_dat_o[3]
*634 wbs_dat_o[4]
*635 wbs_dat_o[5]
*636 wbs_dat_o[6]
*637 wbs_dat_o[7]
*638 wbs_dat_o[8]
*639 wbs_dat_o[9]
*640 wbs_sel_i[0]
*641 wbs_sel_i[1]
*642 wbs_sel_i[2]
*643 wbs_sel_i[3]
*644 wbs_stb_i
*645 wbs_we_i
*646 mprj

*PORTS
analog_io[0] I
analog_io[10] I
analog_io[11] I
analog_io[12] I
analog_io[13] I
analog_io[14] I
analog_io[15] I
analog_io[16] I
analog_io[17] I
analog_io[18] I
analog_io[19] I
analog_io[1] I
analog_io[20] I
analog_io[21] I
analog_io[22] I
analog_io[23] I
analog_io[24] I
analog_io[25] I
analog_io[26] I
analog_io[27] I
analog_io[28] I
analog_io[2] I
analog_io[3] I
analog_io[4] I
analog_io[5] I
analog_io[6] I
analog_io[7] I
analog_io[8] I
analog_io[9] I
io_in[0] I
io_in[10] I
io_in[11] I
io_in[12] I
io_in[13] I
io_in[14] I
io_in[15] I
io_in[16] I
io_in[17] I
io_in[18] I
io_in[19] I
io_in[1] I
io_in[20] I
io_in[21] I
io_in[22] I
io_in[23] I
io_in[24] I
io_in[25] I
io_in[26] I
io_in[27] I
io_in[28] I
io_in[29] I
io_in[2] I
io_in[30] I
io_in[31] I
io_in[32] I
io_in[33] I
io_in[34] I
io_in[35] I
io_in[36] I
io_in[37] I
io_in[3] I
io_in[4] I
io_in[5] I
io_in[6] I
io_in[7] I
io_in[8] I
io_in[9] I
io_oeb[0] O
io_oeb[10] O
io_oeb[11] O
io_oeb[12] O
io_oeb[13] O
io_oeb[14] O
io_oeb[15] O
io_oeb[16] O
io_oeb[17] O
io_oeb[18] O
io_oeb[19] O
io_oeb[1] O
io_oeb[20] O
io_oeb[21] O
io_oeb[22] O
io_oeb[23] O
io_oeb[24] O
io_oeb[25] O
io_oeb[26] O
io_oeb[27] O
io_oeb[28] O
io_oeb[29] O
io_oeb[2] O
io_oeb[30] O
io_oeb[31] O
io_oeb[32] O
io_oeb[33] O
io_oeb[34] O
io_oeb[35] O
io_oeb[36] O
io_oeb[37] O
io_oeb[3] O
io_oeb[4] O
io_oeb[5] O
io_oeb[6] O
io_oeb[7] O
io_oeb[8] O
io_oeb[9] O
io_out[0] O
io_out[10] O
io_out[11] O
io_out[12] O
io_out[13] O
io_out[14] O
io_out[15] O
io_out[16] O
io_out[17] O
io_out[18] O
io_out[19] O
io_out[1] O
io_out[20] O
io_out[21] O
io_out[22] O
io_out[23] O
io_out[24] O
io_out[25] O
io_out[26] O
io_out[27] O
io_out[28] O
io_out[29] O
io_out[2] O
io_out[30] O
io_out[31] O
io_out[32] O
io_out[33] O
io_out[34] O
io_out[35] O
io_out[36] O
io_out[37] O
io_out[3] O
io_out[4] O
io_out[5] O
io_out[6] O
io_out[7] O
io_out[8] O
io_out[9] O
la_data_in[0] I
la_data_in[100] I
la_data_in[101] I
la_data_in[102] I
la_data_in[103] I
la_data_in[104] I
la_data_in[105] I
la_data_in[106] I
la_data_in[107] I
la_data_in[108] I
la_data_in[109] I
la_data_in[10] I
la_data_in[110] I
la_data_in[111] I
la_data_in[112] I
la_data_in[113] I
la_data_in[114] I
la_data_in[115] I
la_data_in[116] I
la_data_in[117] I
la_data_in[118] I
la_data_in[119] I
la_data_in[11] I
la_data_in[120] I
la_data_in[121] I
la_data_in[122] I
la_data_in[123] I
la_data_in[124] I
la_data_in[125] I
la_data_in[126] I
la_data_in[127] I
la_data_in[12] I
la_data_in[13] I
la_data_in[14] I
la_data_in[15] I
la_data_in[16] I
la_data_in[17] I
la_data_in[18] I
la_data_in[19] I
la_data_in[1] I
la_data_in[20] I
la_data_in[21] I
la_data_in[22] I
la_data_in[23] I
la_data_in[24] I
la_data_in[25] I
la_data_in[26] I
la_data_in[27] I
la_data_in[28] I
la_data_in[29] I
la_data_in[2] I
la_data_in[30] I
la_data_in[31] I
la_data_in[32] I
la_data_in[33] I
la_data_in[34] I
la_data_in[35] I
la_data_in[36] I
la_data_in[37] I
la_data_in[38] I
la_data_in[39] I
la_data_in[3] I
la_data_in[40] I
la_data_in[41] I
la_data_in[42] I
la_data_in[43] I
la_data_in[44] I
la_data_in[45] I
la_data_in[46] I
la_data_in[47] I
la_data_in[48] I
la_data_in[49] I
la_data_in[4] I
la_data_in[50] I
la_data_in[51] I
la_data_in[52] I
la_data_in[53] I
la_data_in[54] I
la_data_in[55] I
la_data_in[56] I
la_data_in[57] I
la_data_in[58] I
la_data_in[59] I
la_data_in[5] I
la_data_in[60] I
la_data_in[61] I
la_data_in[62] I
la_data_in[63] I
la_data_in[64] I
la_data_in[65] I
la_data_in[66] I
la_data_in[67] I
la_data_in[68] I
la_data_in[69] I
la_data_in[6] I
la_data_in[70] I
la_data_in[71] I
la_data_in[72] I
la_data_in[73] I
la_data_in[74] I
la_data_in[75] I
la_data_in[76] I
la_data_in[77] I
la_data_in[78] I
la_data_in[79] I
la_data_in[7] I
la_data_in[80] I
la_data_in[81] I
la_data_in[82] I
la_data_in[83] I
la_data_in[84] I
la_data_in[85] I
la_data_in[86] I
la_data_in[87] I
la_data_in[88] I
la_data_in[89] I
la_data_in[8] I
la_data_in[90] I
la_data_in[91] I
la_data_in[92] I
la_data_in[93] I
la_data_in[94] I
la_data_in[95] I
la_data_in[96] I
la_data_in[97] I
la_data_in[98] I
la_data_in[99] I
la_data_in[9] I
la_data_out[0] O
la_data_out[100] O
la_data_out[101] O
la_data_out[102] O
la_data_out[103] O
la_data_out[104] O
la_data_out[105] O
la_data_out[106] O
la_data_out[107] O
la_data_out[108] O
la_data_out[109] O
la_data_out[10] O
la_data_out[110] O
la_data_out[111] O
la_data_out[112] O
la_data_out[113] O
la_data_out[114] O
la_data_out[115] O
la_data_out[116] O
la_data_out[117] O
la_data_out[118] O
la_data_out[119] O
la_data_out[11] O
la_data_out[120] O
la_data_out[121] O
la_data_out[122] O
la_data_out[123] O
la_data_out[124] O
la_data_out[125] O
la_data_out[126] O
la_data_out[127] O
la_data_out[12] O
la_data_out[13] O
la_data_out[14] O
la_data_out[15] O
la_data_out[16] O
la_data_out[17] O
la_data_out[18] O
la_data_out[19] O
la_data_out[1] O
la_data_out[20] O
la_data_out[21] O
la_data_out[22] O
la_data_out[23] O
la_data_out[24] O
la_data_out[25] O
la_data_out[26] O
la_data_out[27] O
la_data_out[28] O
la_data_out[29] O
la_data_out[2] O
la_data_out[30] O
la_data_out[31] O
la_data_out[32] O
la_data_out[33] O
la_data_out[34] O
la_data_out[35] O
la_data_out[36] O
la_data_out[37] O
la_data_out[38] O
la_data_out[39] O
la_data_out[3] O
la_data_out[40] O
la_data_out[41] O
la_data_out[42] O
la_data_out[43] O
la_data_out[44] O
la_data_out[45] O
la_data_out[46] O
la_data_out[47] O
la_data_out[48] O
la_data_out[49] O
la_data_out[4] O
la_data_out[50] O
la_data_out[51] O
la_data_out[52] O
la_data_out[53] O
la_data_out[54] O
la_data_out[55] O
la_data_out[56] O
la_data_out[57] O
la_data_out[58] O
la_data_out[59] O
la_data_out[5] O
la_data_out[60] O
la_data_out[61] O
la_data_out[62] O
la_data_out[63] O
la_data_out[64] O
la_data_out[65] O
la_data_out[66] O
la_data_out[67] O
la_data_out[68] O
la_data_out[69] O
la_data_out[6] O
la_data_out[70] O
la_data_out[71] O
la_data_out[72] O
la_data_out[73] O
la_data_out[74] O
la_data_out[75] O
la_data_out[76] O
la_data_out[77] O
la_data_out[78] O
la_data_out[79] O
la_data_out[7] O
la_data_out[80] O
la_data_out[81] O
la_data_out[82] O
la_data_out[83] O
la_data_out[84] O
la_data_out[85] O
la_data_out[86] O
la_data_out[87] O
la_data_out[88] O
la_data_out[89] O
la_data_out[8] O
la_data_out[90] O
la_data_out[91] O
la_data_out[92] O
la_data_out[93] O
la_data_out[94] O
la_data_out[95] O
la_data_out[96] O
la_data_out[97] O
la_data_out[98] O
la_data_out[99] O
la_data_out[9] O
la_oenb[0] I
la_oenb[100] I
la_oenb[101] I
la_oenb[102] I
la_oenb[103] I
la_oenb[104] I
la_oenb[105] I
la_oenb[106] I
la_oenb[107] I
la_oenb[108] I
la_oenb[109] I
la_oenb[10] I
la_oenb[110] I
la_oenb[111] I
la_oenb[112] I
la_oenb[113] I
la_oenb[114] I
la_oenb[115] I
la_oenb[116] I
la_oenb[117] I
la_oenb[118] I
la_oenb[119] I
la_oenb[11] I
la_oenb[120] I
la_oenb[121] I
la_oenb[122] I
la_oenb[123] I
la_oenb[124] I
la_oenb[125] I
la_oenb[126] I
la_oenb[127] I
la_oenb[12] I
la_oenb[13] I
la_oenb[14] I
la_oenb[15] I
la_oenb[16] I
la_oenb[17] I
la_oenb[18] I
la_oenb[19] I
la_oenb[1] I
la_oenb[20] I
la_oenb[21] I
la_oenb[22] I
la_oenb[23] I
la_oenb[24] I
la_oenb[25] I
la_oenb[26] I
la_oenb[27] I
la_oenb[28] I
la_oenb[29] I
la_oenb[2] I
la_oenb[30] I
la_oenb[31] I
la_oenb[32] I
la_oenb[33] I
la_oenb[34] I
la_oenb[35] I
la_oenb[36] I
la_oenb[37] I
la_oenb[38] I
la_oenb[39] I
la_oenb[3] I
la_oenb[40] I
la_oenb[41] I
la_oenb[42] I
la_oenb[43] I
la_oenb[44] I
la_oenb[45] I
la_oenb[46] I
la_oenb[47] I
la_oenb[48] I
la_oenb[49] I
la_oenb[4] I
la_oenb[50] I
la_oenb[51] I
la_oenb[52] I
la_oenb[53] I
la_oenb[54] I
la_oenb[55] I
la_oenb[56] I
la_oenb[57] I
la_oenb[58] I
la_oenb[59] I
la_oenb[5] I
la_oenb[60] I
la_oenb[61] I
la_oenb[62] I
la_oenb[63] I
la_oenb[64] I
la_oenb[65] I
la_oenb[66] I
la_oenb[67] I
la_oenb[68] I
la_oenb[69] I
la_oenb[6] I
la_oenb[70] I
la_oenb[71] I
la_oenb[72] I
la_oenb[73] I
la_oenb[74] I
la_oenb[75] I
la_oenb[76] I
la_oenb[77] I
la_oenb[78] I
la_oenb[79] I
la_oenb[7] I
la_oenb[80] I
la_oenb[81] I
la_oenb[82] I
la_oenb[83] I
la_oenb[84] I
la_oenb[85] I
la_oenb[86] I
la_oenb[87] I
la_oenb[88] I
la_oenb[89] I
la_oenb[8] I
la_oenb[90] I
la_oenb[91] I
la_oenb[92] I
la_oenb[93] I
la_oenb[94] I
la_oenb[95] I
la_oenb[96] I
la_oenb[97] I
la_oenb[98] I
la_oenb[99] I
la_oenb[9] I
user_clock2 I
user_irq[0] O
user_irq[1] O
user_irq[2] O
wb_clk_i I
wb_rst_i I
wbs_ack_o O
wbs_adr_i[0] I
wbs_adr_i[10] I
wbs_adr_i[11] I
wbs_adr_i[12] I
wbs_adr_i[13] I
wbs_adr_i[14] I
wbs_adr_i[15] I
wbs_adr_i[16] I
wbs_adr_i[17] I
wbs_adr_i[18] I
wbs_adr_i[19] I
wbs_adr_i[1] I
wbs_adr_i[20] I
wbs_adr_i[21] I
wbs_adr_i[22] I
wbs_adr_i[23] I
wbs_adr_i[24] I
wbs_adr_i[25] I
wbs_adr_i[26] I
wbs_adr_i[27] I
wbs_adr_i[28] I
wbs_adr_i[29] I
wbs_adr_i[2] I
wbs_adr_i[30] I
wbs_adr_i[31] I
wbs_adr_i[3] I
wbs_adr_i[4] I
wbs_adr_i[5] I
wbs_adr_i[6] I
wbs_adr_i[7] I
wbs_adr_i[8] I
wbs_adr_i[9] I
wbs_cyc_i I
wbs_dat_i[0] I
wbs_dat_i[10] I
wbs_dat_i[11] I
wbs_dat_i[12] I
wbs_dat_i[13] I
wbs_dat_i[14] I
wbs_dat_i[15] I
wbs_dat_i[16] I
wbs_dat_i[17] I
wbs_dat_i[18] I
wbs_dat_i[19] I
wbs_dat_i[1] I
wbs_dat_i[20] I
wbs_dat_i[21] I
wbs_dat_i[22] I
wbs_dat_i[23] I
wbs_dat_i[24] I
wbs_dat_i[25] I
wbs_dat_i[26] I
wbs_dat_i[27] I
wbs_dat_i[28] I
wbs_dat_i[29] I
wbs_dat_i[2] I
wbs_dat_i[30] I
wbs_dat_i[31] I
wbs_dat_i[3] I
wbs_dat_i[4] I
wbs_dat_i[5] I
wbs_dat_i[6] I
wbs_dat_i[7] I
wbs_dat_i[8] I
wbs_dat_i[9] I
wbs_dat_o[0] O
wbs_dat_o[10] O
wbs_dat_o[11] O
wbs_dat_o[12] O
wbs_dat_o[13] O
wbs_dat_o[14] O
wbs_dat_o[15] O
wbs_dat_o[16] O
wbs_dat_o[17] O
wbs_dat_o[18] O
wbs_dat_o[19] O
wbs_dat_o[1] O
wbs_dat_o[20] O
wbs_dat_o[21] O
wbs_dat_o[22] O
wbs_dat_o[23] O
wbs_dat_o[24] O
wbs_dat_o[25] O
wbs_dat_o[26] O
wbs_dat_o[27] O
wbs_dat_o[28] O
wbs_dat_o[29] O
wbs_dat_o[2] O
wbs_dat_o[30] O
wbs_dat_o[31] O
wbs_dat_o[3] O
wbs_dat_o[4] O
wbs_dat_o[5] O
wbs_dat_o[6] O
wbs_dat_o[7] O
wbs_dat_o[8] O
wbs_dat_o[9] O
wbs_sel_i[0] I
wbs_sel_i[1] I
wbs_sel_i[2] I
wbs_sel_i[3] I
wbs_stb_i I
wbs_we_i I

*D_NET *30 0.00892979
*CONN
*P io_in[0] I
*I *646:io_io_in[0] I *D CaravelTopLevel
*CAP
1 io_in[0] 0.0044649
2 *646:io_io_in[0] 0.0044649
*RES
1 io_in[0] *646:io_io_in[0] 31.2469 
*END

*D_NET *31 0.159567
*CONN
*P io_in[10] I
*I *646:io_io_in[10] I *D CaravelTopLevel
*CAP
1 io_in[10] 0.00202382
2 *646:io_io_in[10] 0.000820062
3 *31:17 0.00514225
4 *31:9 0.043394
5 *31:7 0.0410957
6 *31:9 *35:17 0.0501915
7 *31:9 *66:9 0.00301715
8 *31:9 *70:9 0
9 *31:9 *104:9 0
10 *31:17 *64:9 0.00230667
11 *31:17 *66:17 0.00516838
12 *31:17 *108:7 0
13 *31:17 *142:9 0.00640733
*RES
1 io_in[10] *31:7 13.8669 
2 *31:7 *31:9 176.366 
3 *31:9 *31:17 45.8891 
4 *31:17 *646:io_io_in[10] 10.7757 
*END

*D_NET *32 0.201258
*CONN
*P io_in[11] I
*I *646:io_io_in[11] I *D CaravelTopLevel
*CAP
1 io_in[11] 0.00139565
2 *646:io_io_in[11] 0.00197587
3 *32:9 0.0579056
4 *32:7 0.0573253
5 *32:9 *107:9 0.0826558
6 *32:9 *111:9 0
*RES
1 io_in[11] *32:7 12.4931 
2 *32:7 *32:9 232.217 
3 *32:9 *646:io_io_in[11] 14.3821 
*END

*D_NET *33 0.26211
*CONN
*P io_in[12] I
*I *646:io_io_in[12] I *D CaravelTopLevel
*CAP
1 io_in[12] 0.00259065
2 *646:io_io_in[12] 0.000747366
3 *33:9 0.0320076
4 *33:7 0.0338509
5 *646:io_io_in[12] *66:15 0
6 *33:9 *34:9 0
7 *33:9 *108:9 0.0945888
8 *33:9 *110:9 0.0983246
*RES
1 io_in[12] *33:7 16.0995 
2 *33:7 *33:9 260.396 
3 *33:9 *646:io_io_in[12] 10.7757 
*END

*D_NET *34 0.266174
*CONN
*P io_in[13] I
*I *646:io_io_in[13] I *D CaravelTopLevel
*CAP
1 io_in[13] 0.00225691
2 *646:io_io_in[13] 0.00112486
3 *34:9 0.0624144
4 *34:7 0.0635465
5 *34:9 *35:17 0
6 *34:9 *70:9 0.0908265
7 *34:9 *72:9 0.0434439
8 *34:9 *108:9 0
9 *34:9 *110:9 0
10 *34:9 *142:9 0.00256104
11 *33:9 *34:9 0
*RES
1 io_in[13] *34:7 15.0691 
2 *34:7 *34:9 288.702 
3 *34:9 *646:io_io_in[13] 11.8061 
*END

*D_NET *35 0.245419
*CONN
*P io_in[14] I
*I *646:io_io_in[14] I *D CaravelTopLevel
*CAP
1 io_in[14] 0.000892659
2 *646:io_io_in[14] 0.00168552
3 *35:17 0.0672835
4 *35:15 0.0666134
5 *35:9 0.0194507
6 *35:7 0.019328
7 *35:9 *111:9 0.0199475
8 *35:15 io_out[12] 2.64827e-05
9 *35:17 *70:9 0
10 *31:9 *35:17 0.0501915
11 *34:9 *35:17 0
*RES
1 io_in[14] *35:7 10.7757 
2 *35:7 *35:9 86.3707 
3 *35:9 *35:15 18.9755 
4 *35:15 *35:17 230.694 
5 *35:17 *646:io_io_in[14] 13.18 
*END

*D_NET *36 0.156716
*CONN
*P io_in[15] I
*I *646:io_io_in[15] I *D CaravelTopLevel
*CAP
1 io_in[15] 0.0772955
2 *646:io_io_in[15] 0.00106258
3 *36:5 0.0783581
*RES
1 io_in[15] *36:5 1793.18 
2 *36:5 *646:io_io_in[15] 31.6485 
*END

*D_NET *37 0.158189
*CONN
*P io_in[16] I
*I *646:io_io_in[16] I *D CaravelTopLevel
*CAP
1 io_in[16] 0.0772955
2 *646:io_io_in[16] 0.00179896
3 *37:5 0.0790944
*RES
1 io_in[16] *37:5 1793.18 
2 *37:5 *646:io_io_in[16] 35.1507 
*END

*D_NET *38 0.15948
*CONN
*P io_in[17] I
*I *646:io_io_in[17] I *D CaravelTopLevel
*CAP
1 io_in[17] 0.0774497
2 *646:io_io_in[17] 0.00229005
3 *38:5 0.0797398
*RES
1 io_in[17] *38:5 1796.71 
2 *38:5 *646:io_io_in[17] 34.2911 
*END

*D_NET *39 0.161698
*CONN
*P io_in[18] I
*I *646:io_io_in[18] I *D CaravelTopLevel
*CAP
1 io_in[18] 0.00172888
2 *646:io_io_in[18] 0.00240074
3 *39:13 0.0791201
4 *39:11 0.0784482
*RES
1 io_in[18] *39:11 38.4245 
2 *39:11 *39:13 1779.88 
3 *39:13 *646:io_io_in[18] 30.9384 
*END

*D_NET *40 0.162896
*CONN
*P io_in[19] I
*I *646:io_io_in[19] I *D CaravelTopLevel
*CAP
1 io_in[19] 0.0774497
2 *646:io_io_in[19] 0.00399812
3 *40:5 0.0814479
*RES
1 io_in[19] *40:5 1796.71 
2 *40:5 *646:io_io_in[19] 39.4431 
*END

*D_NET *41 0.0139333
*CONN
*P io_in[1] I
*I *646:io_io_in[1] I *D CaravelTopLevel
*CAP
1 io_in[1] 0.00696664
2 *646:io_io_in[1] 0.00696664
*RES
1 io_in[1] *646:io_io_in[1] 38.3552 
*END

*D_NET *42 0.164278
*CONN
*P io_in[20] I
*I *646:io_io_in[20] I *D CaravelTopLevel
*CAP
1 io_in[20] 0.0774497
2 *646:io_io_in[20] 0.00468947
3 *42:5 0.0821392
*RES
1 io_in[20] *42:5 1796.71 
2 *42:5 *646:io_io_in[20] 42.105 
*END

*D_NET *43 0.165548
*CONN
*P io_in[21] I
*I *646:io_io_in[21] I *D CaravelTopLevel
*CAP
1 io_in[21] 0.0774497
2 *646:io_io_in[21] 0.00532438
3 *43:5 0.0827741
*RES
1 io_in[21] *43:5 1796.71 
2 *43:5 *646:io_io_in[21] 44.681 
*END

*D_NET *44 0.167549
*CONN
*P io_in[22] I
*I *646:io_io_in[22] I *D CaravelTopLevel
*CAP
1 io_in[22] 0.0774342
2 *646:io_io_in[22] 0.00632259
3 *44:5 0.0837568
4 *44:5 *120:15 3.55887e-05
*RES
1 io_in[22] *44:5 1796.71 
2 *44:5 *646:io_io_in[22] 47.257 
*END

*D_NET *45 0.169351
*CONN
*P io_in[23] I
*I *646:io_io_in[23] I *D CaravelTopLevel
*CAP
1 io_in[23] 0.0774611
2 *646:io_io_in[23] 0.00721459
3 *45:5 0.0846757
*RES
1 io_in[23] *45:5 1796.71 
2 *45:5 *646:io_io_in[23] 49.9188 
*END

*D_NET *46 0.220087
*CONN
*P io_in[24] I
*I *646:io_io_in[24] I *D CaravelTopLevel
*CAP
1 io_in[24] 0.000973786
2 *646:io_io_in[24] 0.00217637
3 *46:21 0.00799289
4 *46:19 0.00624956
5 *46:13 0.0525176
6 *46:11 0.0620571
7 *46:7 0.0109463
8 *46:11 *122:17 0.0144813
9 *46:13 *47:9 0.0387956
10 *46:13 *122:9 0.0111598
11 *46:13 *122:17 0
12 *46:13 *123:9 0.00578846
13 *46:13 *125:17 0.00638979
14 *46:19 *53:11 0.000558859
*RES
1 io_in[24] *46:7 10.9475 
2 *46:7 *46:11 46.984 
3 *46:11 *46:13 245.945 
4 *46:13 *46:19 17.3011 
5 *46:19 *46:21 131.142 
6 *46:21 *646:io_io_in[24] 14.1675 
*END

*D_NET *47 0.226275
*CONN
*P io_in[25] I
*I *646:io_io_in[25] I *D CaravelTopLevel
*CAP
1 io_in[25] 0.00135963
2 *646:io_io_in[25] 0.00251164
3 *47:9 0.0515945
4 *47:7 0.0504424
5 *47:9 *49:9 0.0815709
6 *47:9 *125:17 0
7 *47:9 *129:17 0
8 *46:13 *47:9 0.0387956
*RES
1 io_in[25] *47:7 12.1496 
2 *47:7 *47:9 289.845 
3 *47:9 *646:io_io_in[25] 14.8973 
*END

*D_NET *48 0.198458
*CONN
*P io_in[26] I
*I *646:io_io_in[26] I *D CaravelTopLevel
*CAP
1 io_in[26] 0.00228898
2 *646:io_io_in[26] 0.00144072
3 *48:9 0.0616207
4 *48:7 0.062469
5 *48:9 *50:9 0.070639
6 *48:9 *84:9 0
7 *48:9 *85:9 0
8 *48:9 *86:9 0
9 *48:9 *88:9 0
*RES
1 io_in[26] *48:7 14.7256 
2 *48:7 *48:9 264.077 
3 *48:9 *646:io_io_in[26] 12.3213 
*END

*D_NET *49 0.247646
*CONN
*P io_in[27] I
*I *646:io_io_in[27] I *D CaravelTopLevel
*CAP
1 io_in[27] 0.0015134
2 *646:io_io_in[27] 0.00232146
3 *49:9 0.0281064
4 *49:7 0.0272983
5 *49:9 *53:13 0.00264965
6 *49:9 *54:9 0.0184287
7 *49:9 *87:17 0.0857568
8 *49:9 *129:17 0
9 *47:9 *49:9 0.0815709
*RES
1 io_in[27] *49:7 12.3213 
2 *49:7 *49:9 238.31 
3 *49:9 *646:io_io_in[27] 14.7256 
*END

*D_NET *50 0.210724
*CONN
*P io_in[28] I
*I *646:io_io_in[28] I *D CaravelTopLevel
*CAP
1 io_in[28] 0.00254794
2 *646:io_io_in[28] 0.00132329
3 *50:9 0.0290203
4 *50:7 0.0302449
5 *50:9 *51:9 0.0693947
6 *50:9 *55:9 0.00755373
7 *50:9 *86:9 0
8 *50:9 *88:9 0
9 *48:9 *50:9 0.070639
*RES
1 io_in[28] *50:7 14.8973 
2 *50:7 *50:9 212.415 
3 *50:9 *646:io_io_in[28] 12.1496 
*END

*D_NET *51 0.186288
*CONN
*P io_in[29] I
*I *646:io_io_in[29] I *D CaravelTopLevel
*CAP
1 io_in[29] 0.0026785
2 *646:io_io_in[29] 0.00121798
3 *51:9 0.0244905
4 *51:7 0.025951
5 *51:9 *55:9 0.0052252
6 *51:9 *86:9 0
7 *51:9 *89:11 0
8 *51:9 *89:15 0.00110129
9 *51:9 *89:17 0.0562291
10 *50:9 *51:9 0.0693947
*RES
1 io_in[29] *51:7 15.0691 
2 *51:7 *51:9 186.648 
3 *51:9 *646:io_io_in[29] 11.9779 
*END

*D_NET *52 0.0224731
*CONN
*P io_in[2] I
*I *646:io_io_in[2] I *D CaravelTopLevel
*CAP
1 io_in[2] 0.00847408
2 *646:io_io_in[2] 0.00226304
3 *52:11 0.0107371
4 *52:11 io_out[1] 0
5 *52:11 *61:9 0.000998897
*RES
1 io_in[2] *52:11 46.4659 
2 *52:11 *646:io_io_in[2] 7.756 
*END

*D_NET *53 0.140721
*CONN
*P io_in[30] I
*I *646:io_io_in[30] I *D CaravelTopLevel
*CAP
1 io_in[30] 0.00166518
2 *646:io_io_in[30] 0.00205039
3 *53:13 0.0444164
4 *53:11 0.0440312
5 *53:13 *54:9 0.0104999
6 *53:13 *87:17 0.03424
7 *53:13 *132:9 0.000609133
8 *46:19 *53:11 0.000558859
9 *49:9 *53:13 0.00264965
*RES
1 io_in[30] *53:11 12.9037 
2 *53:11 *53:13 160.881 
3 *53:13 *646:io_io_in[30] 14.3821 
*END

*D_NET *54 0.103353
*CONN
*P io_in[31] I
*I *646:io_io_in[31] I *D CaravelTopLevel
*CAP
1 io_in[31] 0.00147579
2 *646:io_io_in[31] 0.00222094
3 *54:9 0.0303423
4 *54:7 0.0295971
5 *54:9 *94:9 0
6 *54:9 *129:17 0
7 *54:9 *130:17 0
8 *54:9 *131:17 0
9 *54:9 *132:9 0.0107882
10 *49:9 *54:9 0.0184287
11 *53:13 *54:9 0.0104999
*RES
1 io_in[31] *54:7 12.1496 
2 *54:7 *54:9 134.986 
3 *54:9 *646:io_io_in[31] 14.8973 
*END

*D_NET *55 0.0772378
*CONN
*P io_in[32] I
*I *646:io_io_in[32] I *D CaravelTopLevel
*CAP
1 io_in[32] 0.00241174
2 *646:io_io_in[32] 0.00128049
3 *55:9 0.0297979
4 *55:7 0.0309292
5 *646:io_io_in[32] io_out[34] 3.95554e-05
6 *55:9 *88:9 0
7 *55:9 *89:11 0
8 *50:9 *55:9 0.00755373
9 *51:9 *55:9 0.0052252
*RES
1 io_in[32] *55:7 14.7256 
2 *55:7 *55:9 109.219 
3 *55:9 *646:io_io_in[32] 12.3213 
*END

*D_NET *56 0.0764221
*CONN
*P io_in[33] I
*I *646:io_io_in[33] I *D CaravelTopLevel
*CAP
1 io_in[33] 0.00104642
2 *646:io_io_in[33] 0.00259817
3 *56:9 0.0136456
4 *56:7 0.0120939
5 *56:9 *93:17 0.0167028
6 *56:9 *94:9 0.00591922
7 *56:9 *95:9 0.00435453
8 *56:9 *131:17 0.0200615
*RES
1 io_in[33] *56:7 10.9475 
2 *56:7 *56:9 83.3243 
3 *56:9 *646:io_io_in[33] 16.0995 
*END

*D_NET *57 0.0557515
*CONN
*P io_in[34] I
*I *646:io_io_in[34] I *D CaravelTopLevel
*CAP
1 io_in[34] 0.00123002
2 *646:io_io_in[34] 0.00231723
3 *57:9 0.013528
4 *57:7 0.0124408
5 *57:7 *131:15 0
6 *57:9 *93:13 0.000584873
7 *57:9 *94:9 0.0210703
8 *57:9 *95:9 0.00187035
9 *57:9 *131:9 0.00270986
10 *57:9 *132:9 0
*RES
1 io_in[34] *57:7 11.4627 
2 *57:7 *57:9 57.5568 
3 *57:9 *646:io_io_in[34] 15.5843 
*END

*D_NET *58 0.0312761
*CONN
*P io_in[35] I
*I *646:io_io_in[35] I *D CaravelTopLevel
*CAP
1 io_in[35] 0.00710535
2 *646:io_io_in[35] 0.00253419
3 *58:9 0.00963954
4 *58:9 *95:9 0.0102181
5 *58:9 *134:9 0.00177892
*RES
1 io_in[35] *58:9 42.6099 
2 *58:9 *646:io_io_in[35] 16.0995 
*END

*D_NET *59 0.0173376
*CONN
*P io_in[36] I
*I *646:io_io_in[36] I *D CaravelTopLevel
*CAP
1 io_in[36] 0.0086688
2 *646:io_io_in[36] 0.0086688
*RES
1 io_in[36] *646:io_io_in[36] 45.1275 
*END

*D_NET *60 0.0101216
*CONN
*P io_in[37] I
*I *646:io_io_in[37] I *D CaravelTopLevel
*CAP
1 io_in[37] 0.00506079
2 *646:io_io_in[37] 0.00506079
*RES
1 io_in[37] *646:io_io_in[37] 31.4187 
*END

*D_NET *61 0.0338909
*CONN
*P io_in[3] I
*I *646:io_io_in[3] I *D CaravelTopLevel
*CAP
1 io_in[3] 0.000833374
2 *646:io_io_in[3] 0.00243358
3 *61:9 0.0128149
4 *61:7 0.0112147
5 *61:9 *62:9 0.00240131
6 *61:9 *100:9 0.00319412
7 *52:11 *61:9 0.000998897
*RES
1 io_in[3] *61:7 10.604 
2 *61:7 *61:9 43.2133 
3 *61:9 *646:io_io_in[3] 16.2712 
*END

*D_NET *62 0.0559737
*CONN
*P io_in[4] I
*I *646:io_io_in[4] I *D CaravelTopLevel
*CAP
1 io_in[4] 0.00105196
2 *646:io_io_in[4] 0.00229938
3 *62:9 0.0119056
4 *62:7 0.0106582
5 *62:9 *63:9 0.0159353
6 *62:9 *100:9 0.00160592
7 *62:9 *101:9 0.00995467
8 *62:9 *102:9 0.000161338
9 *61:9 *62:9 0.00240131
*RES
1 io_in[4] *62:7 11.1192 
2 *62:7 *62:9 59.08 
3 *62:9 *646:io_io_in[4] 15.756 
*END

*D_NET *63 0.0824614
*CONN
*P io_in[5] I
*I *646:io_io_in[5] I *D CaravelTopLevel
*CAP
1 io_in[5] 0.00092431
2 *646:io_io_in[5] 0.00232852
3 *63:9 0.0112136
4 *63:7 0.00980935
5 *63:9 *100:9 0.0264861
6 *63:9 *101:9 0.0028069
7 *63:9 *102:9 0.00236564
8 *63:9 *141:9 0.0105918
9 *62:9 *63:9 0.0159353
*RES
1 io_in[5] *63:7 10.9475 
2 *63:7 *63:9 74.9467 
3 *63:9 *646:io_io_in[5] 15.9277 
*END

*D_NET *64 0.0744839
*CONN
*P io_in[6] I
*I *646:io_io_in[6] I *D CaravelTopLevel
*CAP
1 io_in[6] 0.0027809
2 *646:io_io_in[6] 0.000702636
3 *64:9 0.019268
4 *64:7 0.0213463
5 *64:9 *646:io_io_in[7] 0.000457995
6 *64:9 *65:9 0
7 *64:9 *66:17 0.0202766
8 *64:9 *99:9 0.00173677
9 *64:9 *139:9 0
10 *64:9 *142:9 0.00560801
11 *31:17 *64:9 0.00230667
*RES
1 io_in[6] *64:7 16.2712 
2 *64:7 *64:9 90.8133 
3 *64:9 *646:io_io_in[6] 10.604 
*END

*D_NET *65 0.0936679
*CONN
*P io_in[7] I
*I *646:io_io_in[7] I *D CaravelTopLevel
*CAP
1 io_in[7] 0.00252819
2 *646:io_io_in[7] 0.00307659
3 *65:9 0.0237106
4 *65:7 0.0231622
5 *646:io_io_in[7] *139:9 0.000454961
6 *65:9 *70:9 0.00832489
7 *65:9 *104:9 0.0125475
8 *65:9 *139:9 0.0151124
9 *65:9 *142:9 0.00429265
10 *64:9 *646:io_io_in[7] 0.000457995
11 *64:9 *65:9 0
*RES
1 io_in[7] *65:7 15.0691 
2 *65:7 *65:9 110.137 
3 *65:9 *646:io_io_in[7] 20.9005 
*END

*D_NET *66 0.121335
*CONN
*P io_in[8] I
*I *646:io_io_in[8] I *D CaravelTopLevel
*CAP
1 io_in[8] 0.00236586
2 *646:io_io_in[8] 0.000639198
3 *66:17 0.0181743
4 *66:15 0.0182717
5 *66:9 0.0114642
6 *66:7 0.0130934
7 *66:9 *104:9 0.0267556
8 *66:17 *108:9 0.00208165
9 *66:17 *142:9 2.72188e-05
10 *646:io_io_in[12] *66:15 0
11 *31:9 *66:9 0.00301715
12 *31:17 *66:17 0.00516838
13 *64:9 *66:17 0.0202766
*RES
1 io_in[8] *66:7 14.5539 
2 *66:7 *66:9 63.1419 
3 *66:9 *66:15 17.9451 
4 *66:15 *66:17 84.3397 
5 *66:17 *646:io_io_in[8] 10.4323 
*END

*D_NET *67 0.147992
*CONN
*P io_in[9] I
*I *646:io_io_in[9] I *D CaravelTopLevel
*CAP
1 io_in[9] 0.000847909
2 *646:io_io_in[9] 0.00267913
3 *67:9 0.0369014
4 *67:7 0.0350702
5 *67:9 *141:9 0.0010953
6 *67:9 *143:9 0.0713981
*RES
1 io_in[9] *67:7 10.604 
2 *67:7 *67:9 175.605 
3 *67:9 *646:io_io_in[9] 16.2712 
*END

*D_NET *68 0.00985267
*CONN
*P io_oeb[0] O
*I *646:io_io_oeb[0] O *D CaravelTopLevel
*CAP
1 io_oeb[0] 0.00492633
2 *646:io_io_oeb[0] 0.00492633
*RES
1 *646:io_io_oeb[0] io_oeb[0] 33.1509 
*END

*D_NET *69 0.172414
*CONN
*P io_oeb[10] O
*I *646:io_io_oeb[10] O *D CaravelTopLevel
*CAP
1 io_oeb[10] 0.00089173
2 *646:io_io_oeb[10] 0.00256641
3 *69:9 0.0339657
4 *69:7 0.0356404
5 *69:9 *102:9 0.00367215
6 *69:9 *103:9 0.00298861
7 *69:9 *105:9 0.0129988
8 *69:9 *109:9 0.0781711
9 *69:9 *111:9 0.00151874
*RES
1 *646:io_io_oeb[10] *69:7 16.0565 
2 *69:7 *69:9 1189.68 
3 *69:9 io_oeb[10] 10.8187 
*END

*D_NET *70 0.222627
*CONN
*P io_oeb[11] O
*I *646:io_io_oeb[11] O *D CaravelTopLevel
*CAP
1 io_oeb[11] 0.00223085
2 *646:io_io_oeb[11] 0.0011803
3 *70:9 0.0406339
4 *70:7 0.0395833
5 *70:9 *104:9 0.0398476
6 *70:9 *142:9 0
7 *31:9 *70:9 0
8 *34:9 *70:9 0.0908265
9 *35:17 *70:9 0
10 *65:9 *70:9 0.00832489
*RES
1 *646:io_io_oeb[11] *70:7 11.9779 
2 *70:7 *70:9 242.753 
3 *70:9 io_oeb[11] 14.8973 
*END

*D_NET *71 0.292809
*CONN
*P io_oeb[12] O
*I *646:io_io_oeb[12] O *D CaravelTopLevel
*CAP
1 io_oeb[12] 0.000972779
2 *646:io_io_oeb[12] 0.00259119
3 *71:9 0.0207064
4 *71:7 0.0223248
5 *71:9 *73:9 0.0998099
6 *71:9 *103:9 0.0100498
7 *71:9 *105:9 0.00338333
8 *71:9 *109:9 0.113013
9 *71:9 *111:9 0.0191205
10 *71:9 *141:9 0.000837001
*RES
1 *646:io_io_oeb[12] *71:7 15.8848 
2 *71:7 *71:9 1503.8 
3 *71:9 io_oeb[12] 10.9904 
*END

*D_NET *72 0.193565
*CONN
*P io_oeb[13] O
*I *646:io_io_oeb[13] O *D CaravelTopLevel
*CAP
1 io_oeb[13] 0.00219677
2 *646:io_io_oeb[13] 0.00122201
3 *72:9 0.0738388
4 *72:7 0.072864
5 *34:9 *72:9 0.0434439
*RES
1 *646:io_io_oeb[13] *72:7 11.9349 
2 *72:7 *72:9 1660.15 
3 *72:9 io_oeb[13] 14.9403 
*END

*D_NET *73 0.280654
*CONN
*P io_oeb[14] O
*I *646:io_io_oeb[14] O *D CaravelTopLevel
*CAP
1 io_oeb[14] 0.000958855
2 *646:io_io_oeb[14] 0.00265966
3 *73:9 0.0592211
4 *73:7 0.0609219
5 *73:9 *111:9 0.0570827
6 *71:9 *73:9 0.0998099
*RES
1 *646:io_io_oeb[14] *73:7 15.7989 
2 *73:7 *73:9 1817.2 
3 *73:9 io_oeb[14] 11.0763 
*END

*D_NET *74 0.160185
*CONN
*P io_oeb[15] O
*I *646:io_io_oeb[15] O *D CaravelTopLevel
*CAP
1 io_oeb[15] 0.00308799
2 *646:io_io_oeb[15] 7.90936e-05
3 *74:9 0.0800133
4 *74:7 0.0770044
*RES
1 *646:io_io_oeb[15] *74:7 1.86429 
2 *74:7 *74:9 1784.81 
3 *74:9 io_oeb[15] 42.8037 
*END

*D_NET *75 0.158406
*CONN
*P io_oeb[16] O
*I *646:io_io_oeb[16] O *D CaravelTopLevel
*CAP
1 io_oeb[16] 0.00219875
2 *646:io_io_oeb[16] 7.90936e-05
3 *75:9 0.0791241
4 *75:7 0.0770044
*RES
1 *646:io_io_oeb[16] *75:7 1.86429 
2 *75:7 *75:9 1784.81 
3 *75:9 io_oeb[16] 40.2277 
*END

*D_NET *76 0.156773
*CONN
*P io_oeb[17] O
*I *646:io_io_oeb[17] O *D CaravelTopLevel
*CAP
1 io_oeb[17] 0.00138219
2 *646:io_io_oeb[17] 7.90936e-05
3 *76:9 0.0783075
4 *76:7 0.0770044
*RES
1 *646:io_io_oeb[17] *76:7 1.86429 
2 *76:7 *76:9 1784.81 
3 *76:9 io_oeb[17] 37.6517 
*END

*D_NET *77 0.156111
*CONN
*P io_oeb[18] O
*I *646:io_io_oeb[18] O *D CaravelTopLevel
*CAP
1 io_oeb[18] 0.0772887
2 *646:io_io_oeb[18] 0.000766697
3 *77:9 0.0780553
*RES
1 *646:io_io_oeb[18] *77:9 17.5657 
2 *77:9 io_oeb[18] 1793.18 
*END

*D_NET *78 0.157824
*CONN
*P io_oeb[19] O
*I *646:io_io_oeb[19] O *D CaravelTopLevel
*CAP
1 io_oeb[19] 0.0774497
2 *646:io_io_oeb[19] 0.00146218
3 *78:15 0.0789119
*RES
1 *646:io_io_oeb[19] *78:15 31.114 
2 *78:15 io_oeb[19] 1796.71 
*END

*D_NET *79 0.0212761
*CONN
*P io_oeb[1] O
*I *646:io_io_oeb[1] O *D CaravelTopLevel
*CAP
1 io_oeb[1] 0.00875804
2 *646:io_io_oeb[1] 0.00875804
3 io_oeb[1] *90:9 0.000354222
4 io_oeb[1] *128:9 0.00340577
*RES
1 *646:io_io_oeb[1] io_oeb[1] 49.0176 
*END

*D_NET *80 0.159481
*CONN
*P io_oeb[20] O
*I *646:io_io_oeb[20] O *D CaravelTopLevel
*CAP
1 io_oeb[20] 0.0772955
2 *646:io_io_oeb[20] 0.00244493
3 *80:15 0.0797404
*RES
1 *646:io_io_oeb[20] *80:15 37.2115 
2 *80:15 io_oeb[20] 1793.18 
*END

*D_NET *81 0.160554
*CONN
*P io_oeb[21] O
*I *646:io_io_oeb[21] O *D CaravelTopLevel
*CAP
1 io_oeb[21] 0.0774497
2 *646:io_io_oeb[21] 0.00282705
3 *81:15 0.0802768
*RES
1 *646:io_io_oeb[21] *81:15 36.3519 
2 *81:15 io_oeb[21] 1796.71 
*END

*D_NET *82 0.162486
*CONN
*P io_oeb[22] O
*I *646:io_io_oeb[22] O *D CaravelTopLevel
*CAP
1 io_oeb[22] 0.0774497
2 *646:io_io_oeb[22] 0.0037935
3 *82:13 0.0812432
*RES
1 *646:io_io_oeb[22] *82:13 38.3923 
2 *82:13 io_oeb[22] 1796.71 
*END

*D_NET *83 0.170422
*CONN
*P io_oeb[23] O
*I *646:io_io_oeb[23] O *D CaravelTopLevel
*CAP
1 io_oeb[23] 0.0774741
2 *646:io_io_oeb[23] 0.00471446
3 *83:15 0.0821886
4 io_oeb[23] *89:17 0.00604508
*RES
1 *646:io_io_oeb[23] *83:15 41.5039 
2 *83:15 io_oeb[23] 1796.71 
*END

*D_NET *84 0.259902
*CONN
*P io_oeb[24] O
*I *646:io_io_oeb[24] O *D CaravelTopLevel
*CAP
1 io_oeb[24] 0.00258502
2 *646:io_io_oeb[24] 0.000937408
3 *84:9 0.0846977
4 *84:7 0.08305
5 *84:9 *86:9 0.0886315
6 *48:9 *84:9 0
*RES
1 *646:io_io_oeb[24] *84:7 10.9475 
2 *84:7 *84:9 306.6 
3 *84:9 io_oeb[24] 16.0995 
*END

*D_NET *85 0.245459
*CONN
*P io_oeb[25] O
*I *646:io_io_oeb[25] O *D CaravelTopLevel
*CAP
1 io_oeb[25] 0.00201671
2 *646:io_io_oeb[25] 0.00178185
3 *85:9 0.0923846
4 *85:7 0.0921498
5 *85:9 *88:9 0.0571259
6 *48:9 *85:9 0
*RES
1 *646:io_io_oeb[25] *85:7 13.3517 
2 *85:7 *85:9 280.833 
3 *85:9 io_oeb[25] 13.6952 
*END

*D_NET *86 0.205303
*CONN
*P io_oeb[26] O
*I *646:io_io_oeb[26] O *D CaravelTopLevel
*CAP
1 io_oeb[26] 0.00268507
2 *646:io_io_oeb[26] 0.000982158
3 *86:9 0.0539904
4 *86:7 0.0522875
5 *86:9 *87:13 0.00168095
6 *86:9 *89:17 0.00504515
7 *48:9 *86:9 0
8 *50:9 *86:9 0
9 *51:9 *86:9 0
10 *84:9 *86:9 0.0886315
*RES
1 *646:io_io_oeb[26] *86:7 11.1192 
2 *86:7 *86:9 254.938 
3 *86:9 io_oeb[26] 15.9277 
*END

*D_NET *87 0.212334
*CONN
*P io_oeb[27] O
*I *646:io_io_oeb[27] O *D CaravelTopLevel
*CAP
1 io_oeb[27] 0.00163082
2 *646:io_io_oeb[27] 0.00814527
3 *87:17 0.0350792
4 *87:15 0.0334484
5 *87:13 0.00814527
6 *87:13 *89:17 0.00420765
7 *49:9 *87:17 0.0857568
8 *53:13 *87:17 0.03424
9 *86:9 *87:13 0.00168095
*RES
1 *646:io_io_oeb[27] *87:13 49.4488 
2 *87:13 *87:15 8 
3 *87:15 *87:17 202.388 
4 *87:17 io_oeb[27] 12.4931 
*END

*D_NET *88 0.15961
*CONN
*P io_oeb[28] O
*I *646:io_io_oeb[28] O *D CaravelTopLevel
*CAP
1 io_oeb[28] 0.00223622
2 *646:io_io_oeb[28] 0.00162805
3 *88:9 0.0496141
4 *88:7 0.0490059
5 *48:9 *88:9 0
6 *50:9 *88:9 0
7 *55:9 *88:9 0
8 *85:9 *88:9 0.0571259
*RES
1 *646:io_io_oeb[28] *88:7 13.18 
2 *88:7 *88:9 203.276 
3 *88:9 io_oeb[28] 13.8669 
*END

*D_NET *89 0.151887
*CONN
*P io_oeb[29] O
*I *646:io_io_oeb[29] O *D CaravelTopLevel
*CAP
1 io_oeb[29] 0.00277405
2 *646:io_io_oeb[29] 0.0140642
3 *89:17 0.0241297
4 *89:15 0.0227911
5 *89:11 0.0154997
6 io_oeb[23] *89:17 0.00604508
7 *51:9 *89:11 0
8 *51:9 *89:15 0.00110129
9 *51:9 *89:17 0.0562291
10 *55:9 *89:11 0
11 *86:9 *89:17 0.00504515
12 *87:13 *89:17 0.00420765
*RES
1 *646:io_io_oeb[29] *89:11 49.9048 
2 *89:11 *89:15 6.9328 
3 *89:15 *89:17 132.701 
4 *89:17 io_oeb[29] 15.2408 
*END

*D_NET *90 0.0342838
*CONN
*P io_oeb[2] O
*I *646:io_io_oeb[2] O *D CaravelTopLevel
*CAP
1 io_oeb[2] 0.00265149
2 *646:io_io_oeb[2] 0.0084026
3 *90:9 0.0110541
4 *90:9 *99:9 0.00713928
5 *90:9 *128:9 0.00468214
6 io_oeb[1] *90:9 0.000354222
*RES
1 *646:io_io_oeb[2] *90:9 48.6131 
2 *90:9 io_oeb[2] 16.2712 
*END

*D_NET *91 0.15309
*CONN
*P io_oeb[30] O
*I *646:io_io_oeb[30] O *D CaravelTopLevel
*CAP
1 io_oeb[30] 0.00104646
2 *646:io_io_oeb[30] 0.00238826
3 *91:17 0.0119701
4 *91:15 0.0112237
5 *91:9 0.00409557
6 *91:7 0.00618377
7 *91:9 *92:9 0.00200523
8 *91:9 *127:9 0.0106021
9 *91:9 *129:9 0.0205819
10 *91:9 *130:9 0.0129275
11 *91:9 *130:17 0.00155604
12 *91:9 *131:17 0.00110296
13 *91:17 *92:17 0.00767117
14 *91:17 *126:17 0.0159932
15 *91:17 *127:17 0.00264965
16 *91:17 *129:17 0.0359722
17 *91:17 *130:17 1.5888e-05
18 *91:17 *131:17 0.00510398
*RES
1 *646:io_io_oeb[30] *91:7 15.5413 
2 *91:7 *91:9 303.692 
3 *91:9 *91:15 16.6141 
4 *91:15 *91:17 97.0331 
5 *91:17 io_oeb[30] 10.9475 
*END

*D_NET *92 0.101484
*CONN
*P io_oeb[31] O
*I *646:io_io_oeb[31] O *D CaravelTopLevel
*CAP
1 io_oeb[31] 0.000839537
2 *646:io_io_oeb[31] 0.00240319
3 *92:17 0.0233549
4 *92:15 0.0229686
5 *92:9 0.0050767
6 *92:7 0.00702665
7 *92:9 *94:9 0.00411443
8 *92:9 *130:9 0.00350283
9 *92:9 *131:9 0.00123795
10 *92:15 io_oeb[33] 0
11 *92:17 *93:17 0.0210299
12 *92:17 *127:17 0.000242593
13 *92:17 *131:17 1.00658e-05
14 *91:9 *92:9 0.00200523
15 *91:17 *92:17 0.00767117
*RES
1 *646:io_io_oeb[31] *92:7 15.6272 
2 *92:7 *92:9 152.271 
3 *92:9 *92:15 17.0435 
4 *92:15 *92:17 98.4293 
5 *92:17 io_oeb[31] 10.4323 
*END

*D_NET *93 0.083385
*CONN
*P io_oeb[32] O
*I *646:io_io_oeb[32] O *D CaravelTopLevel
*CAP
1 io_oeb[32] 0.00090886
2 *646:io_io_oeb[32] 0.00364339
3 *93:17 0.0169705
4 *93:15 0.0160617
5 *93:13 0.00364339
6 *93:13 io_oeb[34] 0
7 *93:17 *131:17 0.00383962
8 *56:9 *93:17 0.0167028
9 *57:9 *93:13 0.000584873
10 *92:17 *93:17 0.0210299
*RES
1 *646:io_io_oeb[32] *93:13 45.7725 
2 *93:13 *93:15 8 
3 *93:15 *93:17 96.2715 
4 *93:17 io_oeb[32] 10.604 
*END

*D_NET *94 0.0806679
*CONN
*P io_oeb[33] O
*I *646:io_io_oeb[33] O *D CaravelTopLevel
*CAP
1 io_oeb[33] 0.0012086
2 *646:io_io_oeb[33] 0.00244469
3 *94:9 0.0114238
4 *94:7 0.0126599
5 *94:9 *95:9 0.0107807
6 *94:9 *130:9 0.00128047
7 *94:9 *131:17 0.0097658
8 *94:9 *132:9 0
9 *54:9 *94:9 0
10 *56:9 *94:9 0.00591922
11 *57:9 *94:9 0.0210703
12 *92:9 *94:9 0.00411443
13 *92:15 io_oeb[33] 0
*RES
1 *646:io_io_oeb[33] *94:7 15.756 
2 *94:7 *94:9 74.1851 
3 *94:9 io_oeb[33] 11.2909 
*END

*D_NET *95 0.0522502
*CONN
*P io_oeb[34] O
*I *646:io_io_oeb[34] O *D CaravelTopLevel
*CAP
1 io_oeb[34] 0.00103896
2 *646:io_io_oeb[34] 0.00242105
3 *95:9 0.0075676
4 *95:7 0.00894969
5 *95:7 io_oeb[35] 0.000102819
6 *95:9 *134:9 0.00494645
7 *56:9 *95:9 0.00435453
8 *57:9 *95:9 0.00187035
9 *58:9 *95:9 0.0102181
10 *93:13 io_oeb[34] 0
11 *94:9 *95:9 0.0107807
*RES
1 *646:io_io_oeb[34] *95:7 15.9277 
2 *95:7 *95:9 48.4176 
3 *95:9 io_oeb[34] 11.1192 
*END

*D_NET *96 0.0236262
*CONN
*P io_oeb[35] O
*I *646:io_io_oeb[35] O *D CaravelTopLevel
*CAP
1 io_oeb[35] 0.0085548
2 *646:io_io_oeb[35] 0.0085548
3 io_oeb[35] *134:9 0.00641376
4 *95:7 io_oeb[35] 0.000102819
*RES
1 *646:io_io_oeb[35] io_oeb[35] 49.6971 
*END

*D_NET *97 0.0121881
*CONN
*P io_oeb[36] O
*I *646:io_io_oeb[36] O *D CaravelTopLevel
*CAP
1 io_oeb[36] 0.00609406
2 *646:io_io_oeb[36] 0.00609406
3 io_oeb[36] io_out[36] 0
*RES
1 *646:io_io_oeb[36] io_oeb[36] 35.9883 
*END

*D_NET *98 0.0101572
*CONN
*P io_oeb[37] O
*I *646:io_io_oeb[37] O *D CaravelTopLevel
*CAP
1 io_oeb[37] 0.0050786
2 *646:io_io_oeb[37] 0.0050786
*RES
1 *646:io_io_oeb[37] io_oeb[37] 31.7995 
*END

*D_NET *99 0.0437867
*CONN
*P io_oeb[3] O
*I *646:io_io_oeb[3] O *D CaravelTopLevel
*CAP
1 io_oeb[3] 0.00264316
2 *646:io_io_oeb[3] 0.000783723
3 *99:9 0.0157753
4 *99:7 0.0139159
5 *99:9 *128:9 0.00179258
6 *99:9 *137:9 0
7 *99:9 *139:9 0
8 *64:9 *99:9 0.00173677
9 *90:9 *99:9 0.00713928
*RES
1 *646:io_io_oeb[3] *99:7 10.7757 
2 *99:7 *99:9 53.8757 
3 *99:9 io_oeb[3] 16.0995 
*END

*D_NET *100 0.0638534
*CONN
*P io_oeb[4] O
*I *646:io_io_oeb[4] O *D CaravelTopLevel
*CAP
1 io_oeb[4] 0.000892659
2 *646:io_io_oeb[4] 0.00237184
3 *100:9 0.0139118
4 *100:7 0.015391
5 *61:9 *100:9 0.00319412
6 *62:9 *100:9 0.00160592
7 *63:9 *100:9 0.0264861
*RES
1 *646:io_io_oeb[4] *100:7 16.0995 
2 *100:7 *100:9 69.7424 
3 *100:9 io_oeb[4] 10.7757 
*END

*D_NET *101 0.0746091
*CONN
*P io_oeb[5] O
*I *646:io_io_oeb[5] O *D CaravelTopLevel
*CAP
1 io_oeb[5] 0.0011688
2 *646:io_io_oeb[5] 0.00225463
3 *101:9 0.0180559
4 *101:7 0.0191418
5 io_oeb[5] *105:7 8.7956e-05
6 *101:7 io_out[3] 0
7 *101:9 *140:9 0
8 *101:9 *141:9 0.0211385
9 *62:9 *101:9 0.00995467
10 *63:9 *101:9 0.0028069
*RES
1 *646:io_io_oeb[5] *101:7 15.5843 
2 *101:7 *101:9 85.6091 
3 *101:9 io_oeb[5] 11.2909 
*END

*D_NET *102 0.0876704
*CONN
*P io_oeb[6] O
*I *646:io_io_oeb[6] O *D CaravelTopLevel
*CAP
1 io_oeb[6] 0.00105424
2 *646:io_io_oeb[6] 0.00243283
3 *102:9 0.0171516
4 *102:7 0.0185302
5 *102:9 *103:9 0.0349912
6 *102:9 *141:9 0.00731113
7 *62:9 *102:9 0.000161338
8 *63:9 *102:9 0.00236564
9 *69:9 *102:9 0.00367215
*RES
1 *646:io_io_oeb[6] *102:7 15.8848 
2 *102:7 *102:9 562.869 
3 *102:9 io_oeb[6] 10.9904 
*END

*D_NET *103 0.119638
*CONN
*P io_oeb[7] O
*I *646:io_io_oeb[7] O *D CaravelTopLevel
*CAP
1 io_oeb[7] 0.00110747
2 *646:io_io_oeb[7] 0.00234314
3 *103:9 0.0213051
4 *103:7 0.0225408
5 *103:9 *105:9 0.00401757
6 *103:9 *109:9 0.00161066
7 *103:9 *141:9 0.0186836
8 *69:9 *103:9 0.00298861
9 *71:9 *103:9 0.0100498
10 *102:9 *103:9 0.0349912
*RES
1 *646:io_io_oeb[7] *103:7 15.7989 
2 *103:7 *103:9 719.221 
3 *103:9 io_oeb[7] 11.0763 
*END

*D_NET *104 0.141491
*CONN
*P io_oeb[8] O
*I *646:io_io_oeb[8] O *D CaravelTopLevel
*CAP
1 io_oeb[8] 0.00237947
2 *646:io_io_oeb[8] 0.00126139
3 *104:9 0.0279384
4 *104:7 0.0268203
5 *104:9 *139:9 0.00394076
6 *31:9 *104:9 0
7 *65:9 *104:9 0.0125475
8 *66:9 *104:9 0.0267556
9 *70:9 *104:9 0.0398476
*RES
1 *646:io_io_oeb[8] *104:7 12.1496 
2 *104:7 *104:9 157.961 
3 *104:9 io_oeb[8] 14.7256 
*END

*D_NET *105 0.223994
*CONN
*P io_oeb[9] O
*I *646:io_io_oeb[9] O *D CaravelTopLevel
*CAP
1 io_oeb[9] 0.000969413
2 *646:io_io_oeb[9] 0.00252224
3 *105:9 0.0224051
4 *105:7 0.0239579
5 *105:9 *107:9 0
6 *105:9 *109:9 0.0117033
7 *105:9 *111:9 0.0368094
8 *105:9 *141:9 0.0315483
9 *105:9 *143:9 0.0735905
10 io_oeb[5] *105:7 8.7956e-05
11 *69:9 *105:9 0.0129988
12 *71:9 *105:9 0.00338333
13 *103:9 *105:9 0.00401757
*RES
1 *646:io_io_oeb[9] *105:7 15.9277 
2 *105:7 *105:9 186.267 
3 *105:9 io_oeb[9] 10.9475 
*END

*D_NET *106 0.00669611
*CONN
*P io_out[0] O
*I *646:io_io_out[0] O *D CaravelTopLevel
*CAP
1 io_out[0] 0.00334805
2 *646:io_io_out[0] 0.00334805
*RES
1 *646:io_io_out[0] io_out[0] 12.3872 
*END

*D_NET *107 0.175093
*CONN
*P io_out[10] O
*I *646:io_io_out[10] O *D CaravelTopLevel
*CAP
1 io_out[10] 0.00136955
2 *646:io_io_out[10] 0.00209502
3 *107:9 0.0417948
4 *107:7 0.0425203
5 *107:9 *111:9 0
6 *107:9 *140:9 0.00465765
7 *107:9 *141:9 0
8 *32:9 *107:9 0.0826558
9 *105:9 *107:9 0
*RES
1 *646:io_io_out[10] *107:7 14.5539 
2 *107:7 *107:9 209.242 
3 *107:9 io_out[10] 12.3213 
*END

*D_NET *108 0.216179
*CONN
*P io_out[11] O
*I *646:io_io_out[11] O *D CaravelTopLevel
*CAP
1 io_out[11] 0.00258083
2 *646:io_io_out[11] 0.000807417
3 *108:9 0.040155
4 *108:7 0.0383816
5 *108:9 *142:9 0.0375839
6 *31:17 *108:7 0
7 *33:9 *108:9 0.0945888
8 *34:9 *108:9 0
9 *66:17 *108:9 0.00208165
*RES
1 *646:io_io_out[11] *108:7 10.9475 
2 *108:7 *108:9 237.421 
3 *108:9 io_out[11] 15.9277 
*END

*D_NET *109 0.267991
*CONN
*P io_out[12] O
*I *646:io_io_out[12] O *D CaravelTopLevel
*CAP
1 io_out[12] 0.00090289
2 *646:io_io_out[12] 0.00266807
3 *109:9 0.0252833
4 *109:7 0.0270485
5 *109:9 *111:9 0.00756345
6 *35:15 io_out[12] 2.64827e-05
7 *69:9 *109:9 0.0781711
8 *71:9 *109:9 0.113013
9 *103:9 *109:9 0.00161066
10 *105:9 *109:9 0.0117033
*RES
1 *646:io_io_out[12] *109:7 15.9707 
2 *109:7 *109:9 1474.21 
3 *109:9 io_out[12] 10.9045 
*END

*D_NET *110 0.229556
*CONN
*P io_out[13] O
*I *646:io_io_out[13] O *D CaravelTopLevel
*CAP
1 io_out[13] 0.00252092
2 *646:io_io_out[13] 0.000702636
3 *110:9 0.0649132
4 *110:7 0.0630949
5 *33:9 *110:9 0.0983246
6 *34:9 *110:9 0
*RES
1 *646:io_io_out[13] *110:7 10.604 
2 *110:7 *110:9 294.034 
3 *110:9 io_out[13] 16.2712 
*END

*D_NET *111 0.305134
*CONN
*P io_out[14] O
*I *646:io_io_out[14] O *D CaravelTopLevel
*CAP
1 io_out[14] 0.000995295
2 *646:io_io_out[14] 0.00259994
3 *111:9 0.0789456
4 *111:7 0.0805503
5 *32:9 *111:9 0
6 *35:9 *111:9 0.0199475
7 *69:9 *111:9 0.00151874
8 *71:9 *111:9 0.0191205
9 *73:9 *111:9 0.0570827
10 *105:9 *111:9 0.0368094
11 *107:9 *111:9 0
12 *109:9 *111:9 0.00756345
*RES
1 *646:io_io_out[14] *111:7 15.756 
2 *111:7 *111:9 322.213 
3 *111:9 io_out[14] 11.1192 
*END

*D_NET *112 0.157601
*CONN
*P io_out[15] O
*I *646:io_io_out[15] O *D CaravelTopLevel
*CAP
1 io_out[15] 0.001796
2 *646:io_io_out[15] 7.90936e-05
3 *112:9 0.0787213
4 *112:7 0.0770044
*RES
1 *646:io_io_out[15] *112:7 1.86429 
2 *112:7 *112:9 1784.81 
3 *112:9 io_out[15] 38.6821 
*END

*D_NET *113 0.155815
*CONN
*P io_out[16] O
*I *646:io_io_out[16] O *D CaravelTopLevel
*CAP
1 io_out[16] 0.00458936
2 *646:io_io_out[16] 7.90936e-05
3 *113:11 0.00463745
4 *113:9 0.0732389
5 *113:7 0.0732699
*RES
1 *646:io_io_out[16] *113:7 1.86429 
2 *113:7 *113:9 1698.39 
3 *113:9 *113:11 1.09786 
4 *113:11 io_out[16] 106.213 
*END

*D_NET *114 0.157145
*CONN
*P io_out[17] O
*I *646:io_io_out[17] O *D CaravelTopLevel
*CAP
1 io_out[17] 0.00115845
2 *646:io_io_out[17] 0.000972596
3 *114:15 0.0776001
4 *114:13 0.0774143
*RES
1 *646:io_io_out[17] *114:13 32.125 
2 *114:13 *114:15 1773.54 
3 *114:15 io_out[17] 36.793 
*END

*D_NET *115 0.158816
*CONN
*P io_out[18] O
*I *646:io_io_out[18] O *D CaravelTopLevel
*CAP
1 io_out[18] 0.00118106
2 *646:io_io_out[18] 0.001785
3 *115:17 0.0776228
4 *115:15 0.0782267
*RES
1 *646:io_io_out[18] *115:15 35.2365 
2 *115:15 *115:17 1773.54 
3 *115:17 io_out[18] 36.793 
*END

*D_NET *116 0.160089
*CONN
*P io_out[19] O
*I *646:io_io_out[19] O *D CaravelTopLevel
*CAP
1 io_out[19] 0.0774497
2 *646:io_io_out[19] 0.00259489
3 *116:15 0.0800446
*RES
1 *646:io_io_out[19] *116:15 35.3215 
2 *116:15 io_out[19] 1796.71 
*END

*D_NET *117 0.0176138
*CONN
*P io_out[1] O
*I *646:io_io_out[1] O *D CaravelTopLevel
*CAP
1 io_out[1] 0.00880689
2 *646:io_io_out[1] 0.00880689
3 *52:11 io_out[1] 0
*RES
1 *646:io_io_out[1] io_out[1] 43.6864 
*END

*D_NET *118 0.162102
*CONN
*P io_out[20] O
*I *646:io_io_out[20] O *D CaravelTopLevel
*CAP
1 io_out[20] 0.00118082
2 *646:io_io_out[20] 0.00327434
3 *118:15 0.0777768
4 *118:13 0.0798703
*RES
1 *646:io_io_out[20] *118:13 36.3315 
2 *118:13 *118:15 1777.06 
3 *118:15 io_out[20] 36.8789 
*END

*D_NET *119 0.1634
*CONN
*P io_out[21] O
*I *646:io_io_out[21] O *D CaravelTopLevel
*CAP
1 io_out[21] 0.00118082
2 *646:io_io_out[21] 0.00392317
3 *119:17 0.0777768
4 *119:15 0.0805191
*RES
1 *646:io_io_out[21] *119:15 39.4431 
2 *119:15 *119:17 1777.06 
3 *119:17 io_out[21] 36.8789 
*END

*D_NET *120 0.164916
*CONN
*P io_out[22] O
*I *646:io_io_out[22] O *D CaravelTopLevel
*CAP
1 io_out[22] 0.00126206
2 *646:io_io_out[22] 0.00461317
3 *120:17 0.0778272
4 *120:15 0.0811783
5 *44:5 *120:15 3.55887e-05
*RES
1 *646:io_io_out[22] *120:15 42.7234 
2 *120:15 *120:17 1776.35 
3 *120:17 io_out[22] 36.9648 
*END

*D_NET *121 0.166357
*CONN
*P io_out[23] O
*I *646:io_io_out[23] O *D CaravelTopLevel
*CAP
1 io_out[23] 0.000757826
2 *646:io_io_out[23] 7.90936e-05
3 *121:15 0.00603932
4 *121:9 0.0823415
5 *121:7 0.0771391
*RES
1 *646:io_io_out[23] *121:7 1.86429 
2 *121:7 *121:9 1787.62 
3 *121:9 *121:15 34.088 
4 *121:15 io_out[23] 16.9754 
*END

*D_NET *122 0.257638
*CONN
*P io_out[24] O
*I *646:io_io_out[24] O *D CaravelTopLevel
*CAP
1 io_out[24] 0.000929036
2 *646:io_io_out[24] 0.00270566
3 *122:17 0.0351232
4 *122:15 0.0345076
5 *122:9 0.022386
6 *122:7 0.0247781
7 *122:9 *123:9 0.0297487
8 *122:17 *123:17 0.0615031
9 *122:17 *125:17 0.0203159
10 *46:11 *122:17 0.0144813
11 *46:13 *122:9 0.0111598
12 *46:13 *122:17 0
*RES
1 *646:io_io_out[24] *122:7 15.4555 
2 *122:7 *122:9 650.905 
3 *122:9 *122:15 16.8717 
4 *122:15 *122:17 193.883 
5 *122:17 io_out[24] 10.7757 
*END

*D_NET *123 0.276313
*CONN
*P io_out[25] O
*I *646:io_io_out[25] O *D CaravelTopLevel
*CAP
1 io_out[25] 0.000871138
2 *646:io_io_out[25] 0.00267277
3 *123:17 0.0246751
4 *123:15 0.0241578
5 *123:9 0.0125219
6 *123:7 0.0148408
7 *123:9 *124:9 0.00264837
8 *123:9 *125:9 0.0134371
9 *123:9 *129:17 0.00115068
10 *123:15 io_out[29] 1.34341e-05
11 *123:17 *124:17 0.0616345
12 *123:17 *125:17 0.000207803
13 *123:17 *126:17 0.0204415
14 *46:13 *123:9 0.00578846
15 *122:9 *123:9 0.0297487
16 *122:17 *123:17 0.0615031
*RES
1 *646:io_io_out[25] *123:7 15.5413 
2 *123:7 *123:9 504.414 
3 *123:9 *123:15 16.9576 
4 *123:15 *123:17 194.518 
5 *123:17 io_out[25] 10.604 
*END

*D_NET *124 0.226617
*CONN
*P io_out[26] O
*I *646:io_io_out[26] O *D CaravelTopLevel
*CAP
1 io_out[26] 0.000839537
2 *646:io_io_out[26] 0.00270762
3 *124:17 0.04259
4 *124:15 0.0420862
5 *124:9 0.00902539
6 *124:7 0.0113973
7 *124:9 *125:9 0.0234124
8 *124:9 *126:9 0.00655174
9 *124:9 *129:17 0.00153732
10 *124:9 *130:17 0.00144555
11 *124:15 io_out[30] 0.000185215
12 *124:17 *126:17 3.72313e-05
13 *124:17 *127:17 0.0205186
14 *123:9 *124:9 0.00264837
15 *123:17 *124:17 0.0616345
*RES
1 *646:io_io_out[26] *124:7 15.7131 
2 *124:7 *124:9 361.444 
3 *124:9 *124:15 16.9576 
4 *124:15 *124:17 194.391 
5 *124:17 io_out[26] 10.4323 
*END

*D_NET *125 0.204639
*CONN
*P io_out[27] O
*I *646:io_io_out[27] O *D CaravelTopLevel
*CAP
1 io_out[27] 0.00107104
2 *646:io_io_out[27] 0.00261944
3 *125:17 0.0272379
4 *125:15 0.0263913
5 *125:9 0.00737379
6 *125:7 0.00976872
7 *125:9 *126:9 0.00523013
8 *125:9 *127:9 0.00600361
9 *125:9 *129:17 0.00436263
10 *125:17 *126:17 0.0459735
11 *125:17 *129:17 0.00484413
12 *46:13 *125:17 0.00638979
13 *47:9 *125:17 0
14 *122:17 *125:17 0.0203159
15 *123:9 *125:9 0.0134371
16 *123:17 *125:17 0.000207803
17 *124:9 *125:9 0.0234124
*RES
1 *646:io_io_out[27] *125:7 15.6272 
2 *125:7 *125:9 424.125 
3 *125:9 *125:15 16.5283 
4 *125:15 *125:17 157.326 
5 *125:17 io_out[27] 10.9475 
*END

*D_NET *126 0.206346
*CONN
*P io_out[28] O
*I *646:io_io_out[28] O *D CaravelTopLevel
*CAP
1 io_out[28] 0.00100171
2 *646:io_io_out[28] 0.00266442
3 *126:17 0.0152833
4 *126:15 0.0145418
5 *126:9 0.0107639
6 *126:7 0.013168
7 *126:9 *127:9 0
8 *126:9 *129:9 0.00306154
9 *126:9 *129:17 0.00746246
10 *126:9 *130:17 0.00119113
11 *126:9 *131:17 0.00103587
12 *126:17 *127:17 0.0417792
13 *126:17 *129:17 0.000165156
14 *91:17 *126:17 0.0159932
15 *123:17 *126:17 0.0204415
16 *124:9 *126:9 0.00655174
17 *124:17 *126:17 3.72313e-05
18 *125:9 *126:9 0.00523013
19 *125:17 *126:17 0.0459735
*RES
1 *646:io_io_out[28] *126:7 15.7989 
2 *126:7 *126:9 336.794 
3 *126:9 *126:15 16.5283 
4 *126:15 *126:17 147.172 
5 *126:17 io_out[28] 10.7757 
*END

*D_NET *127 0.154918
*CONN
*P io_out[29] O
*I *646:io_io_out[29] O *D CaravelTopLevel
*CAP
1 io_out[29] 0.00090449
2 *646:io_io_out[29] 0.00242686
3 *127:17 0.0178504
4 *127:15 0.0174037
5 *127:9 0.012693
6 *127:7 0.0146621
7 *127:9 *129:9 0.0027462
8 *127:9 *130:17 0.00442245
9 *91:9 *127:9 0.0106021
10 *91:17 *127:17 0.00264965
11 *92:17 *127:17 0.000242593
12 *123:15 io_out[29] 1.34341e-05
13 *124:17 *127:17 0.0205186
14 *125:9 *127:9 0.00600361
15 *126:9 *127:9 0
16 *126:17 *127:17 0.0417792
*RES
1 *646:io_io_out[29] *127:7 15.4555 
2 *127:7 *127:9 399.475 
3 *127:9 *127:15 17.0435 
4 *127:15 *127:17 110.107 
5 *127:17 io_out[29] 10.604 
*END

*D_NET *128 0.0299537
*CONN
*P io_out[2] O
*I *646:io_io_out[2] O *D CaravelTopLevel
*CAP
1 io_out[2] 0.00245306
2 *646:io_io_out[2] 0.00758357
3 *128:9 0.0100366
4 *128:9 *137:9 0
5 io_oeb[1] *128:9 0.00340577
6 *90:9 *128:9 0.00468214
7 *99:9 *128:9 0.00179258
*RES
1 *646:io_io_out[2] *128:9 43.6253 
2 *128:9 io_out[2] 15.9277 
*END

*D_NET *129 0.160685
*CONN
*P io_out[30] O
*I *646:io_io_out[30] O *D CaravelTopLevel
*CAP
1 io_out[30] 0.00106863
2 *646:io_io_out[30] 0.00241289
3 *129:17 0.0152869
4 *129:15 0.0143899
5 *129:9 0.00825266
6 *129:7 0.0104939
7 *129:9 *130:17 0.00479009
8 *129:9 *131:17 0.00144792
9 *129:15 io_out[32] 2.79505e-05
10 *129:17 *130:17 0.0204445
11 *47:9 *129:17 0
12 *49:9 *129:17 0
13 *54:9 *129:17 0
14 *91:9 *129:9 0.0205819
15 *91:17 *129:17 0.0359722
16 *123:9 *129:17 0.00115068
17 *124:9 *129:17 0.00153732
18 *124:15 io_out[30] 0.000185215
19 *125:9 *129:17 0.00436263
20 *125:17 *129:17 0.00484413
21 *126:9 *129:9 0.00306154
22 *126:9 *129:17 0.00746246
23 *126:17 *129:17 0.000165156
24 *127:9 *129:9 0.0027462
*RES
1 *646:io_io_out[30] *129:7 15.6272 
2 *129:7 *129:9 327.638 
3 *129:9 *129:15 16.3565 
4 *129:15 *129:17 97.2869 
5 *129:17 io_out[30] 11.1192 
*END

*D_NET *130 0.12333
*CONN
*P io_out[31] O
*I *646:io_io_out[31] O *D CaravelTopLevel
*CAP
1 io_out[31] 0.00120515
2 *646:io_io_out[31] 0.00229742
3 *130:17 0.0180286
4 *130:15 0.0169814
5 *130:9 0.00714651
6 *130:7 0.00928602
7 *130:9 *131:17 0.00110296
8 *130:17 *131:17 0.0157052
9 *54:9 *130:17 0
10 *91:9 *130:9 0.0129275
11 *91:9 *130:17 0.00155604
12 *91:17 *130:17 1.5888e-05
13 *92:9 *130:9 0.00350283
14 *94:9 *130:9 0.00128047
15 *124:9 *130:17 0.00144555
16 *126:9 *130:17 0.00119113
17 *127:9 *130:17 0.00442245
18 *129:9 *130:17 0.00479009
19 *129:17 *130:17 0.0204445
*RES
1 *646:io_io_out[31] *130:7 15.4555 
2 *130:7 *130:9 248.758 
3 *130:9 *130:15 16.3565 
4 *130:15 *130:17 85.6091 
5 *130:17 io_out[31] 11.2909 
*END

*D_NET *131 0.102028
*CONN
*P io_out[32] O
*I *646:io_io_out[32] O *D CaravelTopLevel
*CAP
1 io_out[32] 0.00108448
2 *646:io_io_out[32] 0.00235422
3 *131:17 0.0122727
4 *131:15 0.011412
5 *131:9 0.00481126
6 *131:7 0.00694169
7 *54:9 *131:17 0
8 *56:9 *131:17 0.0200615
9 *57:7 *131:15 0
10 *57:9 *131:9 0.00270986
11 *91:9 *131:17 0.00110296
12 *91:17 *131:17 0.00510398
13 *92:9 *131:9 0.00123795
14 *92:17 *131:17 1.00658e-05
15 *93:17 *131:17 0.00383962
16 *94:9 *131:17 0.0097658
17 *126:9 *131:17 0.00103587
18 *129:9 *131:17 0.00144792
19 *129:15 io_out[32] 2.79505e-05
20 *130:9 *131:17 0.00110296
21 *130:17 *131:17 0.0157052
*RES
1 *646:io_io_out[32] *131:7 15.4555 
2 *131:7 *131:9 114.944 
3 *131:9 *131:15 16.5283 
4 *131:15 *131:17 83.9589 
5 *131:17 io_out[32] 11.1192 
*END

*D_NET *132 0.0602041
*CONN
*P io_out[33] O
*I *646:io_io_out[33] O *D CaravelTopLevel
*CAP
1 io_out[33] 0.00154498
2 *646:io_io_out[33] 0.00213985
3 *132:9 0.0222635
4 *132:7 0.0228584
5 *53:13 *132:9 0.000609133
6 *54:9 *132:9 0.0107882
7 *57:9 *132:9 0
8 *94:9 *132:9 0
*RES
1 *646:io_io_out[33] *132:7 14.7256 
2 *132:7 *132:9 78.7547 
3 *132:9 io_out[33] 12.3213 
*END

*D_NET *133 0.0378479
*CONN
*P io_out[34] O
*I *646:io_io_out[34] O *D CaravelTopLevel
*CAP
1 io_out[34] 0.00236574
2 *646:io_io_out[34] 0.00125066
3 *133:9 0.0176535
4 *133:7 0.0165384
5 *646:io_io_in[32] io_out[34] 3.95554e-05
*RES
1 *646:io_io_out[34] *133:7 12.1496 
2 *133:7 *133:9 52.9872 
3 *133:9 io_out[34] 14.8973 
*END

*D_NET *134 0.0297131
*CONN
*P io_out[35] O
*I *646:io_io_out[35] O *D CaravelTopLevel
*CAP
1 io_out[35] 0.00112004
2 *646:io_io_out[35] 0.00716696
3 *134:9 0.008287
4 io_oeb[35] *134:9 0.00641376
5 *58:9 *134:9 0.00177892
6 *95:9 *134:9 0.00494645
*RES
1 *646:io_io_out[35] *134:9 42.8488 
2 *134:9 io_out[35] 11.2909 
*END

*D_NET *135 0.014975
*CONN
*P io_out[36] O
*I *646:io_io_out[36] O *D CaravelTopLevel
*CAP
1 io_out[36] 0.00748751
2 *646:io_io_out[36] 0.00748751
3 io_oeb[36] io_out[36] 0
*RES
1 *646:io_io_out[36] io_out[36] 40.5579 
*END

*D_NET *136 0.00690668
*CONN
*P io_out[37] O
*I *646:io_io_out[37] O *D CaravelTopLevel
*CAP
1 io_out[37] 0.00345334
2 *646:io_io_out[37] 0.00345334
*RES
1 *646:io_io_out[37] io_out[37] 11.3008 
*END

*D_NET *137 0.0381695
*CONN
*P io_out[3] O
*I *646:io_io_out[3] O *D CaravelTopLevel
*CAP
1 io_out[3] 0.00233837
2 *646:io_io_out[3] 0.00108848
3 *137:9 0.0143376
4 *137:7 0.0130877
5 *137:9 *138:9 0.00485016
6 *137:9 *139:9 0.00246726
7 *99:9 *137:9 0
8 *101:7 io_out[3] 0
9 *128:9 *137:9 0
*RES
1 *646:io_io_out[3] *137:7 11.8061 
2 *137:7 *137:9 48.5445 
3 *137:9 io_out[3] 15.0691 
*END

*D_NET *138 0.0564177
*CONN
*P io_out[4] O
*I *646:io_io_out[4] O *D CaravelTopLevel
*CAP
1 io_out[4] 0.00201047
2 *646:io_io_out[4] 0.00121432
3 *138:9 0.0151167
4 *138:7 0.0143206
5 io_out[4] *141:7 0.000672498
6 *138:9 *139:9 0.0182329
7 *137:9 *138:9 0.00485016
*RES
1 *646:io_io_out[4] *138:7 12.1496 
2 *138:7 *138:9 64.4112 
3 *138:9 io_out[4] 14.7256 
*END

*D_NET *139 0.0750459
*CONN
*P io_out[5] O
*I *646:io_io_out[5] O *D CaravelTopLevel
*CAP
1 io_out[5] 0.00228717
2 *646:io_io_out[5] 0.00110489
3 *139:9 0.016314
4 *139:7 0.0151317
5 *646:io_io_in[7] *139:9 0.000454961
6 *64:9 *139:9 0
7 *65:9 *139:9 0.0151124
8 *99:9 *139:9 0
9 *104:9 *139:9 0.00394076
10 *137:9 *139:9 0.00246726
11 *138:9 *139:9 0.0182329
*RES
1 *646:io_io_out[5] *139:7 11.9779 
2 *139:7 *139:9 80.2779 
3 *139:9 io_out[5] 14.8973 
*END

*D_NET *140 0.0718476
*CONN
*P io_out[6] O
*I *646:io_io_out[6] O *D CaravelTopLevel
*CAP
1 io_out[6] 0.00153832
2 *646:io_io_out[6] 0.00194138
3 *140:9 0.0316536
4 *140:7 0.0320567
5 *140:9 *141:9 0
6 *101:9 *140:9 0
7 *107:9 *140:9 0.00465765
*RES
1 *646:io_io_out[6] *140:7 14.3821 
2 *140:7 *140:9 96.1445 
3 *140:9 io_out[6] 12.4931 
*END

*D_NET *141 0.141971
*CONN
*P io_out[7] O
*I *646:io_io_out[7] O *D CaravelTopLevel
*CAP
1 io_out[7] 0.00114398
2 *646:io_io_out[7] 0.00215691
3 *141:9 0.0220826
4 *141:7 0.0230955
5 *141:9 *143:9 0.00161346
6 io_out[4] *141:7 0.000672498
7 *63:9 *141:9 0.0105918
8 *67:9 *141:9 0.0010953
9 *71:9 *141:9 0.000837001
10 *101:9 *141:9 0.0211385
11 *102:9 *141:9 0.00731113
12 *103:9 *141:9 0.0186836
13 *105:9 *141:9 0.0315483
14 *107:9 *141:9 0
15 *140:9 *141:9 0
*RES
1 *646:io_io_out[7] *141:7 15.756 
2 *141:7 *141:9 124.451 
3 *141:9 io_out[7] 11.1192 
*END

*D_NET *142 0.119904
*CONN
*P io_out[8] O
*I *646:io_io_out[8] O *D CaravelTopLevel
*CAP
1 io_out[8] 0.00280113
2 *646:io_io_out[8] 0.000888066
3 *142:9 0.030824
4 *142:7 0.028911
5 *31:17 *142:9 0.00640733
6 *34:9 *142:9 0.00256104
7 *64:9 *142:9 0.00560801
8 *65:9 *142:9 0.00429265
9 *66:17 *142:9 2.72188e-05
10 *70:9 *142:9 0
11 *108:9 *142:9 0.0375839
*RES
1 *646:io_io_out[8] *142:7 11.1192 
2 *142:7 *142:9 152.63 
3 *142:9 io_out[8] 15.756 
*END

*D_NET *143 0.191373
*CONN
*P io_out[9] O
*I *646:io_io_out[9] O *D CaravelTopLevel
*CAP
1 io_out[9] 0.000896864
2 *646:io_io_out[9] 0.002598
3 *143:9 0.0197877
4 *143:7 0.0214888
5 *67:9 *143:9 0.0713981
6 *105:9 *143:9 0.0735905
7 *141:9 *143:9 0.00161346
*RES
1 *646:io_io_out[9] *143:7 16.0995 
2 *143:7 *143:9 180.936 
3 *143:9 io_out[9] 10.7757 
*END

*D_NET *144 0.0129749
*CONN
*P la_data_in[0] I
*I *646:io_la_data_in[0] I *D CaravelTopLevel
*CAP
1 la_data_in[0] 0.00288759
2 *646:io_la_data_in[0] 0.00288759
3 *646:io_la_data_in[0] la_data_out[0] 0
4 *646:io_la_data_in[0] la_data_out[3] 0
5 *646:io_la_data_in[0] wbs_dat_o[28] 8.6101e-05
6 *646:io_la_data_in[0] wbs_dat_o[29] 0.000527467
7 *646:io_la_data_in[0] *646:io_la_data_in[1] 0.00131288
8 *646:io_la_data_in[0] *646:io_la_data_in[2] 0.000707026
9 *646:io_la_data_in[0] *646:io_wbs_adr_i[29] 0
10 *646:io_la_data_in[0] *646:io_wbs_dat_i[30] 0.00268845
11 *646:io_la_data_in[0] *205:7 0
12 *646:io_la_data_in[0] *311:9 0.00122183
13 *646:io_la_data_in[0] *400:9 0.000500131
14 *646:io_la_data_in[0] *600:11 0.000155832
*RES
1 la_data_in[0] *646:io_la_data_in[0] 39.9818 
*END

*D_NET *145 0.0110573
*CONN
*P la_data_in[100] I
*I *646:io_la_data_in[100] I *D CaravelTopLevel
*CAP
1 la_data_in[100] 0.00372229
2 *646:io_la_data_in[100] 0.00372229
3 *646:io_la_data_in[100] la_data_out[100] 0
4 *646:io_la_data_in[100] la_data_out[103] 0.000591131
5 *646:io_la_data_in[100] la_data_out[96] 0
6 *646:io_la_data_in[100] la_data_out[99] 0.000193304
7 *646:io_la_data_in[100] *646:io_la_data_in[103] 0.000310436
8 *646:io_la_data_in[100] *646:io_la_data_in[98] 0.00137377
9 *646:io_la_data_in[100] *646:io_la_data_in[99] 0.000608873
10 *646:io_la_data_in[100] *646:io_la_oenb[103] 0
11 *646:io_la_data_in[100] *646:io_la_oenb[96] 0.000295978
12 *646:io_la_data_in[100] *273:11 0.000239278
*RES
1 la_data_in[100] *646:io_la_data_in[100] 43.4336 
*END

*D_NET *146 0.0159156
*CONN
*P la_data_in[101] I
*I *646:io_la_data_in[101] I *D CaravelTopLevel
*CAP
1 la_data_in[101] 0.00246701
2 *646:io_la_data_in[101] 0.00246701
3 *646:io_la_data_in[101] la_data_out[101] 0.0057985
4 *646:io_la_data_in[101] la_data_out[98] 0.00021153
5 *646:io_la_data_in[101] la_data_out[99] 0.00337454
6 *646:io_la_data_in[101] *646:io_la_data_in[103] 0.000541171
7 *646:io_la_data_in[101] *646:io_la_data_in[104] 0.000773986
8 *646:io_la_data_in[101] *401:9 0.000129906
9 *646:io_la_data_in[101] *404:13 0.000151983
*RES
1 la_data_in[101] *646:io_la_data_in[101] 44.7299 
*END

*D_NET *147 0.00978778
*CONN
*P la_data_in[102] I
*I *646:io_la_data_in[102] I *D CaravelTopLevel
*CAP
1 la_data_in[102] 0.00489389
2 *646:io_la_data_in[102] 0.00489389
3 *646:io_la_data_in[102] *646:io_la_data_in[106] 0
4 *646:io_la_data_in[102] *646:io_la_oenb[105] 0
*RES
1 la_data_in[102] *646:io_la_data_in[102] 42.2785 
*END

*D_NET *148 0.0159279
*CONN
*P la_data_in[103] I
*I *646:io_la_data_in[103] I *D CaravelTopLevel
*CAP
1 la_data_in[103] 0.00214926
2 *646:io_la_data_in[103] 0.00214926
3 *646:io_la_data_in[103] la_data_out[103] 0.00588101
4 *646:io_la_data_in[103] la_data_out[99] 1.41966e-05
5 *646:io_la_data_in[103] *646:io_la_data_in[104] 0.00488259
6 *646:io_la_data_in[100] *646:io_la_data_in[103] 0.000310436
7 *646:io_la_data_in[101] *646:io_la_data_in[103] 0.000541171
*RES
1 la_data_in[103] *646:io_la_data_in[103] 44.0347 
*END

*D_NET *149 0.0158591
*CONN
*P la_data_in[104] I
*I *646:io_la_data_in[104] I *D CaravelTopLevel
*CAP
1 la_data_in[104] 0.00207976
2 *646:io_la_data_in[104] 0.00207976
3 *646:io_la_data_in[104] la_data_out[100] 8.07355e-05
4 *646:io_la_data_in[104] la_data_out[101] 0.000108069
5 *646:io_la_data_in[104] la_data_out[103] 0.000332213
6 *646:io_la_data_in[104] la_data_out[105] 0.000442639
7 *646:io_la_data_in[104] *646:io_la_data_in[105] 0.00494796
8 *646:io_la_data_in[104] *646:io_la_oenb[101] 2.94387e-06
9 *646:io_la_data_in[104] *401:9 0.000128445
10 *646:io_la_data_in[101] *646:io_la_data_in[104] 0.000773986
11 *646:io_la_data_in[103] *646:io_la_data_in[104] 0.00488259
*RES
1 la_data_in[104] *646:io_la_data_in[104] 43.5112 
*END

*D_NET *150 0.016561
*CONN
*P la_data_in[105] I
*I *646:io_la_data_in[105] I *D CaravelTopLevel
*CAP
1 la_data_in[105] 0.00261415
2 *646:io_la_data_in[105] 0.00261415
3 *646:io_la_data_in[105] la_data_out[105] 0.000492113
4 *646:io_la_data_in[105] *646:io_la_data_in[106] 0.00513167
5 *646:io_la_data_in[105] *646:io_la_oenb[101] 0.000302695
6 *646:io_la_data_in[105] *275:11 0.000103785
7 *646:io_la_data_in[105] *403:11 0.000117548
8 *646:io_la_data_in[105] *404:11 0.000104089
9 *646:io_la_data_in[105] *404:13 0.00013288
10 *646:io_la_data_in[104] *646:io_la_data_in[105] 0.00494796
*RES
1 la_data_in[105] *646:io_la_data_in[105] 45.7336 
*END

*D_NET *151 0.0167712
*CONN
*P la_data_in[106] I
*I *646:io_la_data_in[106] I *D CaravelTopLevel
*CAP
1 la_data_in[106] 0.00262363
2 *646:io_la_data_in[106] 0.00262363
3 *646:io_la_data_in[106] la_data_out[105] 9.99761e-05
4 *646:io_la_data_in[106] la_data_out[106] 0.00607126
5 *646:io_la_data_in[106] *403:11 0.00010258
6 *646:io_la_data_in[106] *404:13 0.000118429
7 *646:io_la_data_in[102] *646:io_la_data_in[106] 0
8 *646:io_la_data_in[105] *646:io_la_data_in[106] 0.00513167
*RES
1 la_data_in[106] *646:io_la_data_in[106] 47.065 
*END

*D_NET *152 0.0154925
*CONN
*P la_data_in[107] I
*I *646:io_la_data_in[107] I *D CaravelTopLevel
*CAP
1 la_data_in[107] 0.000246519
2 *646:io_la_data_in[107] 0.000452586
3 *152:13 0.00167231
4 *152:11 0.00146625
5 *646:io_la_data_in[107] *646:io_la_oenb[106] 0
6 *152:11 *646:io_la_data_in[111] 8.52488e-05
7 *152:13 la_data_out[105] 0.000463214
8 *152:13 *154:11 0.00330778
9 *152:13 *405:15 0.00266616
10 *152:13 *406:13 0.00440162
11 *152:13 *409:13 0.000337479
12 *152:13 *412:11 0.000393325
*RES
1 la_data_in[107] *152:11 21.1936 
2 *152:11 *152:13 72.0857 
3 *152:13 *646:io_la_data_in[107] 25.1396 
*END

*D_NET *153 0.0134408
*CONN
*P la_data_in[108] I
*I *646:io_la_data_in[108] I *D CaravelTopLevel
*CAP
1 la_data_in[108] 0.00344893
2 *646:io_la_data_in[108] 0.00344893
3 *646:io_la_data_in[108] la_data_out[105] 0
4 *646:io_la_data_in[108] la_data_out[108] 0.00654146
5 *646:io_la_data_in[108] la_data_out[112] 1.49333e-06
6 *646:io_la_data_in[108] *646:io_la_data_in[110] 0
*RES
1 la_data_in[108] *646:io_la_data_in[108] 45.1509 
*END

*D_NET *154 0.0150222
*CONN
*P la_data_in[109] I
*I *646:io_la_data_in[109] I *D CaravelTopLevel
*CAP
1 la_data_in[109] 0.000405516
2 *646:io_la_data_in[109] 0.000502851
3 *154:11 0.00168886
4 *154:9 0.00159152
5 *154:9 *409:11 0
6 *154:11 *409:13 0.0061352
7 *154:11 *412:11 0.000947615
8 *154:11 *414:13 0.000442833
9 *152:13 *154:11 0.00330778
*RES
1 la_data_in[109] *154:9 22.3536 
2 *154:9 *154:11 72.0857 
3 *154:11 *646:io_la_data_in[109] 25.7404 
*END

*D_NET *155 0.00661202
*CONN
*P la_data_in[10] I
*I *646:io_la_data_in[10] I *D CaravelTopLevel
*CAP
1 la_data_in[10] 0.000680036
2 *646:io_la_data_in[10] 7.28759e-05
3 *155:9 0.00185289
4 *155:7 0.00246005
5 *155:7 la_data_out[7] 0
6 *155:9 *388:11 0.00143342
7 *155:9 *505:17 0.000112756
*RES
1 la_data_in[10] *155:7 28.9821 
2 *155:7 *155:9 43.9764 
3 *155:9 *646:io_la_data_in[10] 16.5846 
*END

*D_NET *156 0.0143433
*CONN
*P la_data_in[110] I
*I *646:io_la_data_in[110] I *D CaravelTopLevel
*CAP
1 la_data_in[110] 0.00387163
2 *646:io_la_data_in[110] 0.00387163
3 *646:io_la_data_in[110] la_data_out[110] 0.000470739
4 *646:io_la_data_in[110] la_data_out[111] 0.00130126
5 *646:io_la_data_in[110] la_data_out[112] 0.00168985
6 *646:io_la_data_in[110] *646:io_la_data_in[113] 0.00238262
7 *646:io_la_data_in[110] *646:io_la_oenb[114] 0
8 *646:io_la_data_in[110] *288:9 0.000755587
9 *646:io_la_data_in[108] *646:io_la_data_in[110] 0
*RES
1 la_data_in[110] *646:io_la_data_in[110] 43.9958 
*END

*D_NET *157 0.0131418
*CONN
*P la_data_in[111] I
*I *646:io_la_data_in[111] I *D CaravelTopLevel
*CAP
1 la_data_in[111] 0.00527851
2 *646:io_la_data_in[111] 0.00527851
3 *646:io_la_data_in[111] *280:11 0.000145518
4 *646:io_la_data_in[111] *408:11 0.000170495
5 *646:io_la_data_in[111] *410:11 0.00218346
6 *152:11 *646:io_la_data_in[111] 8.52488e-05
*RES
1 la_data_in[111] *646:io_la_data_in[111] 48.371 
*END

*D_NET *158 0.0133394
*CONN
*P la_data_in[112] I
*I *646:io_la_data_in[112] I *D CaravelTopLevel
*CAP
1 la_data_in[112] 0.000141426
2 *646:io_la_data_in[112] 0.000590102
3 *158:9 0.00309468
4 *158:7 0.00264601
5 *646:io_la_data_in[112] *646:io_la_oenb[111] 0
6 *158:7 *646:io_la_oenb[116] 0
7 *158:9 *289:11 0.000465806
8 *158:9 *413:11 0.00640138
*RES
1 la_data_in[112] *158:7 18.0657 
2 *158:7 *158:9 79.2321 
3 *158:9 *646:io_la_data_in[112] 26.5482 
*END

*D_NET *159 0.0172261
*CONN
*P la_data_in[113] I
*I *646:io_la_data_in[113] I *D CaravelTopLevel
*CAP
1 la_data_in[113] 0.0032165
2 *646:io_la_data_in[113] 0.0032165
3 *646:io_la_data_in[113] la_data_out[111] 0.00473474
4 *646:io_la_data_in[113] la_data_out[112] 8.99424e-05
5 *646:io_la_data_in[113] *646:io_la_data_in[115] 0.00127625
6 *646:io_la_data_in[113] *646:io_la_oenb[114] 0.0022359
7 *646:io_la_data_in[113] *646:io_la_oenb[117] 7.36502e-05
8 *646:io_la_data_in[113] *291:9 0
9 *646:io_la_data_in[110] *646:io_la_data_in[113] 0.00238262
*RES
1 la_data_in[113] *646:io_la_data_in[113] 48.1654 
*END

*D_NET *160 0.0146666
*CONN
*P la_data_in[114] I
*I *646:io_la_data_in[114] I *D CaravelTopLevel
*CAP
1 la_data_in[114] 0.00344143
2 *646:io_la_data_in[114] 0.00344143
3 *646:io_la_data_in[114] la_data_out[112] 0.00170699
4 *646:io_la_data_in[114] *646:io_la_data_in[116] 0.00439912
5 *646:io_la_data_in[114] *646:io_la_data_in[117] 0.00153005
6 *646:io_la_data_in[114] *646:io_la_oenb[114] 2.46318e-06
7 *646:io_la_data_in[114] *646:io_la_oenb[118] 0.000145154
*RES
1 la_data_in[114] *646:io_la_data_in[114] 46.0484 
*END

*D_NET *161 0.0126956
*CONN
*P la_data_in[115] I
*I *646:io_la_data_in[115] I *D CaravelTopLevel
*CAP
1 la_data_in[115] 0.00458714
2 *646:io_la_data_in[115] 0.00458714
3 *646:io_la_data_in[115] la_data_out[111] 0.0015003
4 *646:io_la_data_in[115] la_data_out[115] 0
5 *646:io_la_data_in[115] *646:io_la_data_in[117] 0
6 *646:io_la_data_in[115] *646:io_la_data_in[120] 0
7 *646:io_la_data_in[115] *646:io_la_oenb[114] 0.000665285
8 *646:io_la_data_in[115] *646:io_la_oenb[119] 7.9489e-05
9 *646:io_la_data_in[113] *646:io_la_data_in[115] 0.00127625
*RES
1 la_data_in[115] *646:io_la_data_in[115] 47.2249 
*END

*D_NET *162 0.0193048
*CONN
*P la_data_in[116] I
*I *646:io_la_data_in[116] I *D CaravelTopLevel
*CAP
1 la_data_in[116] 0.00251839
2 *646:io_la_data_in[116] 0.00251839
3 *646:io_la_data_in[116] la_data_out[111] 0
4 *646:io_la_data_in[116] la_data_out[116] 0.0074224
5 *646:io_la_data_in[116] *646:io_la_data_in[117] 0.00019945
6 *646:io_la_data_in[116] *646:io_la_data_in[119] 0.000902906
7 *646:io_la_data_in[116] *646:io_la_data_in[120] 0.00134419
8 *646:io_la_data_in[116] *646:io_la_oenb[120] 0
9 *646:io_la_data_in[114] *646:io_la_data_in[116] 0.00439912
*RES
1 la_data_in[116] *646:io_la_data_in[116] 46.8683 
*END

*D_NET *163 0.0159587
*CONN
*P la_data_in[117] I
*I *646:io_la_data_in[117] I *D CaravelTopLevel
*CAP
1 la_data_in[117] 0.00284637
2 *646:io_la_data_in[117] 0.00284637
3 *646:io_la_data_in[117] la_data_out[112] 6.3933e-05
4 *646:io_la_data_in[117] la_data_out[117] 0
5 *646:io_la_data_in[117] *646:io_la_data_in[119] 0.00488066
6 *646:io_la_data_in[117] *646:io_la_oenb[114] 0.00215249
7 *646:io_la_data_in[117] *646:io_la_oenb[116] 0
8 *646:io_la_data_in[117] *646:io_la_oenb[119] 0.00143935
9 *646:io_la_data_in[114] *646:io_la_data_in[117] 0.00153005
10 *646:io_la_data_in[115] *646:io_la_data_in[117] 0
11 *646:io_la_data_in[116] *646:io_la_data_in[117] 0.00019945
*RES
1 la_data_in[117] *646:io_la_data_in[117] 46.0401 
*END

*D_NET *164 0.0196689
*CONN
*P la_data_in[118] I
*I *646:io_la_data_in[118] I *D CaravelTopLevel
*CAP
1 la_data_in[118] 0.00270344
2 *646:io_la_data_in[118] 0.00270344
3 *646:io_la_data_in[118] la_data_out[116] 0.00526319
4 *646:io_la_data_in[118] la_data_out[119] 0.00610704
5 *646:io_la_data_in[118] la_data_out[121] 0.00272828
6 *646:io_la_data_in[118] *646:io_la_data_in[121] 0.000163512
7 *646:io_la_data_in[118] *646:io_la_oenb[122] 0
*RES
1 la_data_in[118] *646:io_la_data_in[118] 47.3835 
*END

*D_NET *165 0.0196496
*CONN
*P la_data_in[119] I
*I *646:io_la_data_in[119] I *D CaravelTopLevel
*CAP
1 la_data_in[119] 0.00247378
2 *646:io_la_data_in[119] 0.00247378
3 *646:io_la_data_in[119] *646:io_la_data_in[120] 0.006729
4 *646:io_la_data_in[119] *646:io_la_data_in[123] 0.00167849
5 *646:io_la_data_in[119] *646:io_la_oenb[119] 0.000511041
6 *646:io_la_data_in[116] *646:io_la_data_in[119] 0.000902906
7 *646:io_la_data_in[117] *646:io_la_data_in[119] 0.00488066
*RES
1 la_data_in[119] *646:io_la_data_in[119] 47.1647 
*END

*D_NET *166 0.00854201
*CONN
*P la_data_in[11] I
*I *646:io_la_data_in[11] I *D CaravelTopLevel
*CAP
1 la_data_in[11] 0.00231572
2 *646:io_la_data_in[11] 0.00231572
3 *646:io_la_data_in[11] la_data_out[10] 0.00299243
4 *646:io_la_data_in[11] la_data_out[12] 0.000564199
5 *646:io_la_data_in[11] la_data_out[13] 0.000353936
6 *646:io_la_data_in[11] la_data_out[9] 0
7 *646:io_la_data_in[11] *646:io_la_data_in[9] 0
8 *646:io_la_data_in[11] *646:io_la_oenb[10] 0
9 *646:io_la_data_in[11] *646:io_la_oenb[8] 0
*RES
1 la_data_in[11] *646:io_la_data_in[11] 39.6555 
*END

*D_NET *167 0.021252
*CONN
*P la_data_in[120] I
*I *646:io_la_data_in[120] I *D CaravelTopLevel
*CAP
1 la_data_in[120] 0.00230659
2 *646:io_la_data_in[120] 0.00230659
3 *646:io_la_data_in[120] la_data_out[116] 0.000189382
4 *646:io_la_data_in[120] la_data_out[124] 0.00125636
5 *646:io_la_data_in[120] *646:io_la_data_in[121] 0.00682701
6 *646:io_la_data_in[120] *646:io_la_data_in[123] 0.00029286
7 *646:io_la_data_in[120] *295:9 0
8 *646:io_la_data_in[120] *300:9 0
9 *646:io_la_data_in[115] *646:io_la_data_in[120] 0
10 *646:io_la_data_in[116] *646:io_la_data_in[120] 0.00134419
11 *646:io_la_data_in[119] *646:io_la_data_in[120] 0.006729
*RES
1 la_data_in[120] *646:io_la_data_in[120] 47.8128 
*END

*D_NET *168 0.0211936
*CONN
*P la_data_in[121] I
*I *646:io_la_data_in[121] I *D CaravelTopLevel
*CAP
1 la_data_in[121] 0.0025024
2 *646:io_la_data_in[121] 0.0025024
3 *646:io_la_data_in[121] la_data_out[116] 0.000264032
4 *646:io_la_data_in[121] la_data_out[121] 0.00800957
5 *646:io_la_data_in[121] la_data_out[124] 0.000924638
6 *646:io_la_data_in[121] *646:io_la_data_in[126] 0
7 *646:io_la_data_in[121] *301:11 0
8 *646:io_la_data_in[118] *646:io_la_data_in[121] 0.000163512
9 *646:io_la_data_in[120] *646:io_la_data_in[121] 0.00682701
*RES
1 la_data_in[121] *646:io_la_data_in[121] 47.9845 
*END

*D_NET *169 0.0222356
*CONN
*P la_data_in[122] I
*I *646:io_la_data_in[122] I *D CaravelTopLevel
*CAP
1 la_data_in[122] 0.00285385
2 *646:io_la_data_in[122] 0.00285385
3 *646:io_la_data_in[122] *646:io_la_data_in[125] 0.00362854
4 *646:io_la_data_in[122] *646:io_la_oenb[119] 0.0045427
5 *646:io_la_data_in[122] *646:io_la_oenb[124] 0.000131533
6 *646:io_la_data_in[122] *297:14 0.00796113
7 *646:io_la_data_in[122] *302:9 0
8 *646:io_la_data_in[122] *424:11 0.000263957
*RES
1 la_data_in[122] *646:io_la_data_in[122] 48.9687 
*END

*D_NET *170 0.021876
*CONN
*P la_data_in[123] I
*I *646:io_la_data_in[123] I *D CaravelTopLevel
*CAP
1 la_data_in[123] 0.00266013
2 *646:io_la_data_in[123] 0.00266013
3 *646:io_la_data_in[123] la_data_out[124] 0.00654259
4 *646:io_la_data_in[123] *646:io_la_data_in[124] 0.00727198
5 *646:io_la_data_in[123] *646:io_la_oenb[119] 0.000511529
6 *646:io_la_data_in[123] *646:io_user_clock2 0
7 *646:io_la_data_in[123] *529:9 0.000258323
8 *646:io_la_data_in[123] *530:9 0
9 *646:io_la_data_in[119] *646:io_la_data_in[123] 0.00167849
10 *646:io_la_data_in[120] *646:io_la_data_in[123] 0.00029286
*RES
1 la_data_in[123] *646:io_la_data_in[123] 48.4139 
*END

*D_NET *171 0.022343
*CONN
*P la_data_in[124] I
*I *646:io_la_data_in[124] I *D CaravelTopLevel
*CAP
1 la_data_in[124] 0.0027742
2 *646:io_la_data_in[124] 0.0027742
3 *646:io_la_data_in[124] la_data_out[124] 0.000939967
4 *646:io_la_data_in[124] *646:io_la_oenb[119] 0.000523427
5 *646:io_la_data_in[124] *646:io_la_oenb[124] 0.00772886
6 *646:io_la_data_in[124] *428:15 0.000330374
7 *646:io_la_data_in[123] *646:io_la_data_in[124] 0.00727198
*RES
1 la_data_in[124] *646:io_la_data_in[124] 47.1595 
*END

*D_NET *172 0.0212036
*CONN
*P la_data_in[125] I
*I *646:io_la_data_in[125] I *D CaravelTopLevel
*CAP
1 la_data_in[125] 0.00445012
2 *646:io_la_data_in[125] 0.00445012
3 *646:io_la_data_in[125] *646:io_la_oenb[124] 0.0083695
4 *646:io_la_data_in[125] *646:io_la_oenb[126] 8.69328e-05
5 *646:io_la_data_in[125] *297:14 0.000218377
6 *646:io_la_data_in[122] *646:io_la_data_in[125] 0.00362854
*RES
1 la_data_in[125] *646:io_la_data_in[125] 47.2587 
*END

*D_NET *173 0.0194267
*CONN
*P la_data_in[126] I
*I *646:io_la_data_in[126] I *D CaravelTopLevel
*CAP
1 la_data_in[126] 0.000112334
2 *646:io_la_data_in[126] 0.000886738
3 *173:11 0.003925
4 *173:9 0.00315059
5 *646:io_la_data_in[126] *423:11 0
6 *173:11 *300:11 0.00760607
7 *173:11 *301:11 0.00374597
8 *646:io_la_data_in[121] *646:io_la_data_in[126] 0
*RES
1 la_data_in[126] *173:9 16.3464 
2 *173:9 *173:11 95.4307 
3 *173:11 *646:io_la_data_in[126] 32.2032 
*END

*D_NET *174 0.0230542
*CONN
*P la_data_in[127] I
*I *646:io_la_data_in[127] I *D CaravelTopLevel
*CAP
1 la_data_in[127] 0.00254256
2 *646:io_la_data_in[127] 0.00254256
3 *646:io_la_data_in[127] la_data_out[123] 0.00294393
4 *646:io_la_data_in[127] user_irq[2] 0.00608197
5 *646:io_la_data_in[127] *646:io_la_oenb[126] 0.000708694
6 *646:io_la_data_in[127] *646:io_la_oenb[127] 0.00823446
7 *646:io_la_data_in[127] *424:11 0
*RES
1 la_data_in[127] *646:io_la_data_in[127] 48.2726 
*END

*D_NET *175 0.00985818
*CONN
*P la_data_in[12] I
*I *646:io_la_data_in[12] I *D CaravelTopLevel
*CAP
1 la_data_in[12] 0.00178283
2 *646:io_la_data_in[12] 0.00178283
3 *646:io_la_data_in[12] la_data_out[10] 0.000125537
4 *646:io_la_data_in[12] la_data_out[11] 0.00287115
5 *646:io_la_data_in[12] la_data_out[12] 0.000225296
6 *646:io_la_data_in[12] *646:io_la_oenb[11] 0.000166209
7 *646:io_la_data_in[12] *646:io_la_oenb[12] 0.00279376
8 *646:io_la_data_in[12] *646:io_la_oenb[9] 0.00011057
*RES
1 la_data_in[12] *646:io_la_data_in[12] 39.4837 
*END

*D_NET *176 0.0102822
*CONN
*P la_data_in[13] I
*I *646:io_la_data_in[13] I *D CaravelTopLevel
*CAP
1 la_data_in[13] 0.00143547
2 *646:io_la_data_in[13] 0.00143547
3 *646:io_la_data_in[13] la_data_out[12] 0.00276062
4 *646:io_la_data_in[13] la_data_out[14] 4.56678e-05
5 *646:io_la_data_in[13] *646:io_la_data_in[15] 0.000149309
6 *646:io_la_data_in[13] *646:io_la_oenb[10] 9.70822e-05
7 *646:io_la_data_in[13] *646:io_la_oenb[12] 0.00332436
8 *646:io_la_data_in[13] *646:io_la_oenb[13] 0.000111764
9 *646:io_la_data_in[13] *646:io_la_oenb[14] 0.000922439
*RES
1 la_data_in[13] *646:io_la_data_in[13] 39.2261 
*END

*D_NET *177 0.00835948
*CONN
*P la_data_in[14] I
*I *646:io_la_data_in[14] I *D CaravelTopLevel
*CAP
1 la_data_in[14] 0.00195507
2 *646:io_la_data_in[14] 0.00195507
3 *646:io_la_data_in[14] *646:io_la_oenb[11] 0.000177955
4 *646:io_la_data_in[14] *646:io_la_oenb[13] 0.00326536
5 *646:io_la_data_in[14] *646:io_la_oenb[14] 0.000268543
6 *646:io_la_data_in[14] *646:io_la_oenb[15] 0.000737491
*RES
1 la_data_in[14] *646:io_la_data_in[14] 39.0544 
*END

*D_NET *178 0.00816355
*CONN
*P la_data_in[15] I
*I *646:io_la_data_in[15] I *D CaravelTopLevel
*CAP
1 la_data_in[15] 0.00173839
2 *646:io_la_data_in[15] 0.00173839
3 *646:io_la_data_in[15] la_data_out[14] 0.00268588
4 *646:io_la_data_in[15] la_data_out[15] 0.00165418
5 *646:io_la_data_in[15] *646:io_la_data_in[17] 0.000110168
6 *646:io_la_data_in[15] *646:io_la_oenb[14] 8.722e-05
7 *646:io_la_data_in[13] *646:io_la_data_in[15] 0.000149309
*RES
1 la_data_in[15] *646:io_la_data_in[15] 39.6758 
*END

*D_NET *179 0.00737079
*CONN
*P la_data_in[16] I
*I *646:io_la_data_in[16] I *D CaravelTopLevel
*CAP
1 la_data_in[16] 0.00202518
2 *646:io_la_data_in[16] 0.00202518
3 *646:io_la_data_in[16] *646:io_la_oenb[13] 0
4 *646:io_la_data_in[16] *646:io_la_oenb[15] 0.00303542
5 *646:io_la_data_in[16] *646:io_la_oenb[16] 0.000284999
*RES
1 la_data_in[16] *646:io_la_data_in[16] 38.6251 
*END

*D_NET *180 0.00876355
*CONN
*P la_data_in[17] I
*I *646:io_la_data_in[17] I *D CaravelTopLevel
*CAP
1 la_data_in[17] 0.00135379
2 *646:io_la_data_in[17] 0.00135379
3 *646:io_la_data_in[17] la_data_out[15] 0.000328121
4 *646:io_la_data_in[17] la_data_out[16] 0.00230233
5 *646:io_la_data_in[17] la_data_out[17] 0.00281924
6 *646:io_la_data_in[17] *646:io_la_data_in[19] 0
7 *646:io_la_data_in[17] *646:io_la_oenb[16] 0.000336306
8 *646:io_la_data_in[17] *646:io_la_oenb[18] 0.000159804
9 *646:io_la_data_in[15] *646:io_la_data_in[17] 0.000110168
*RES
1 la_data_in[17] *646:io_la_data_in[17] 38.3675 
*END

*D_NET *181 0.00788055
*CONN
*P la_data_in[18] I
*I *646:io_la_data_in[18] I *D CaravelTopLevel
*CAP
1 la_data_in[18] 0.00170736
2 *646:io_la_data_in[18] 0.00170736
3 *646:io_la_data_in[18] la_data_out[17] 0.000222735
4 *646:io_la_data_in[18] la_data_out[18] 0.00144089
5 *646:io_la_data_in[18] *646:io_la_oenb[17] 0.0028022
6 *646:io_la_data_in[18] *646:io_la_oenb[19] 0
*RES
1 la_data_in[18] *646:io_la_data_in[18] 39.3795 
*END

*D_NET *182 0.00711759
*CONN
*P la_data_in[19] I
*I *646:io_la_data_in[19] I *D CaravelTopLevel
*CAP
1 la_data_in[19] 0.0020163
2 *646:io_la_data_in[19] 0.0020163
3 *646:io_la_data_in[19] la_data_out[17] 0
4 *646:io_la_data_in[19] la_data_out[20] 0.000112993
5 *646:io_la_data_in[19] *646:io_la_data_in[21] 0
6 *646:io_la_data_in[19] *646:io_la_oenb[18] 0.0025869
7 *646:io_la_data_in[19] *646:io_la_oenb[19] 0.000306344
8 *646:io_la_data_in[19] *646:io_la_oenb[20] 7.87639e-05
9 *646:io_la_data_in[17] *646:io_la_data_in[19] 0
*RES
1 la_data_in[19] *646:io_la_data_in[19] 37.9381 
*END

*D_NET *183 0.012918
*CONN
*P la_data_in[1] I
*I *646:io_la_data_in[1] I *D CaravelTopLevel
*CAP
1 la_data_in[1] 0.00403641
2 *646:io_la_data_in[1] 0.00403641
3 *646:io_la_data_in[1] wbs_dat_o[29] 0
4 *646:io_la_data_in[1] *646:io_la_data_in[2] 0.000184165
5 *646:io_la_data_in[1] *646:io_la_oenb[3] 0.000206543
6 *646:io_la_data_in[1] *646:io_wbs_adr_i[30] 0
7 *646:io_la_data_in[1] *646:io_wbs_dat_i[30] 0.000864157
8 *646:io_la_data_in[1] *205:9 0.00024363
9 *646:io_la_data_in[1] *311:9 0.000178384
10 *646:io_la_data_in[1] *333:11 0.000112764
11 *646:io_la_data_in[1] *439:9 0.000878149
12 *646:io_la_data_in[1] *600:11 0.000400578
13 *646:io_la_data_in[1] *631:11 0.000232714
14 *646:io_la_data_in[1] *632:11 0.000231205
15 *646:io_la_data_in[0] *646:io_la_data_in[1] 0.00131288
*RES
1 la_data_in[1] *646:io_la_data_in[1] 41.6202 
*END

*D_NET *184 0.00472476
*CONN
*P la_data_in[20] I
*I *646:io_la_data_in[20] I *D CaravelTopLevel
*CAP
1 la_data_in[20] 0.00224825
2 *646:io_la_data_in[20] 0.00224825
3 *646:io_la_data_in[20] la_data_out[18] 2.2447e-05
4 *646:io_la_data_in[20] la_data_out[19] 0
5 *646:io_la_data_in[20] *646:io_la_data_in[22] 0
6 *646:io_la_data_in[20] *646:io_la_oenb[19] 0
7 *646:io_la_data_in[20] *646:io_la_oenb[21] 0.000205806
*RES
1 la_data_in[20] *646:io_la_data_in[20] 39.5565 
*END

*D_NET *185 0.00771288
*CONN
*P la_data_in[21] I
*I *646:io_la_data_in[21] I *D CaravelTopLevel
*CAP
1 la_data_in[21] 0.00130312
2 *646:io_la_data_in[21] 0.00130312
3 *646:io_la_data_in[21] la_data_out[19] 9.09854e-05
4 *646:io_la_data_in[21] la_data_out[21] 0.00234546
5 *646:io_la_data_in[21] *646:io_la_data_in[22] 0.000109604
6 *646:io_la_data_in[21] *646:io_la_oenb[19] 0.000172002
7 *646:io_la_data_in[21] *646:io_la_oenb[20] 0.00238859
8 *646:io_la_data_in[19] *646:io_la_data_in[21] 0
*RES
1 la_data_in[21] *646:io_la_data_in[21] 37.5088 
*END

*D_NET *186 0.00561455
*CONN
*P la_data_in[22] I
*I *646:io_la_data_in[22] I *D CaravelTopLevel
*CAP
1 la_data_in[22] 0.00232631
2 *646:io_la_data_in[22] 0.00232631
3 *646:io_la_data_in[22] la_data_out[20] 0.000100643
4 *646:io_la_data_in[22] la_data_out[21] 0
5 *646:io_la_data_in[22] la_data_out[22] 0
6 *646:io_la_data_in[22] la_data_out[23] 0.000453354
7 *646:io_la_data_in[22] *646:io_la_data_in[23] 0.000178535
8 *646:io_la_data_in[22] *646:io_la_oenb[20] 0.000119789
9 *646:io_la_data_in[20] *646:io_la_data_in[22] 0
10 *646:io_la_data_in[21] *646:io_la_data_in[22] 0.000109604
*RES
1 la_data_in[22] *646:io_la_data_in[22] 39.7607 
*END

*D_NET *187 0.00609371
*CONN
*P la_data_in[23] I
*I *646:io_la_data_in[23] I *D CaravelTopLevel
*CAP
1 la_data_in[23] 0.00150838
2 *646:io_la_data_in[23] 0.00150838
3 *646:io_la_data_in[23] la_data_out[21] 9.08028e-05
4 *646:io_la_data_in[23] la_data_out[22] 0.000422785
5 *646:io_la_data_in[23] la_data_out[23] 0.000332213
6 *646:io_la_data_in[23] la_data_out[24] 0.000311369
7 *646:io_la_data_in[23] *646:io_la_data_in[24] 0.000172002
8 *646:io_la_data_in[23] *646:io_la_oenb[22] 3.9211e-05
9 *646:io_la_data_in[23] *646:io_la_oenb[23] 0.00153003
10 *646:io_la_data_in[22] *646:io_la_data_in[23] 0.000178535
*RES
1 la_data_in[23] *646:io_la_data_in[23] 37.0795 
*END

*D_NET *188 0.00523519
*CONN
*P la_data_in[24] I
*I *646:io_la_data_in[24] I *D CaravelTopLevel
*CAP
1 la_data_in[24] 0.00156208
2 *646:io_la_data_in[24] 0.00156208
3 *646:io_la_data_in[24] la_data_out[24] 0.000225296
4 *646:io_la_data_in[24] la_data_out[25] 0.000216713
5 *646:io_la_data_in[24] *646:io_la_data_in[25] 0.000831981
6 *646:io_la_data_in[24] *646:io_la_oenb[22] 0.000358698
7 *646:io_la_data_in[24] *646:io_la_oenb[24] 0.000306344
8 *646:io_la_data_in[23] *646:io_la_data_in[24] 0.000172002
*RES
1 la_data_in[24] *646:io_la_data_in[24] 36.8219 
*END

*D_NET *189 0.00710395
*CONN
*P la_data_in[25] I
*I *646:io_la_data_in[25] I *D CaravelTopLevel
*CAP
1 la_data_in[25] 0.00119441
2 *646:io_la_data_in[25] 0.00119441
3 *646:io_la_data_in[25] la_data_out[25] 0.000215242
4 *646:io_la_data_in[25] la_data_out[26] 5.00306e-05
5 *646:io_la_data_in[25] *646:io_la_data_in[26] 0.000341366
6 *646:io_la_data_in[25] *646:io_la_oenb[24] 0.00192932
7 *646:io_la_data_in[25] *646:io_la_oenb[25] 0.0013472
8 *646:io_la_data_in[25] *646:io_la_oenb[26] 0
9 *646:io_la_data_in[24] *646:io_la_data_in[25] 0.000831981
*RES
1 la_data_in[25] *646:io_la_data_in[25] 35.869 
*END

*D_NET *190 0.00592893
*CONN
*P la_data_in[26] I
*I *646:io_la_data_in[26] I *D CaravelTopLevel
*CAP
1 la_data_in[26] 0.00168869
2 *646:io_la_data_in[26] 0.00168869
3 *646:io_la_data_in[26] la_data_out[26] 0.00171023
4 *646:io_la_data_in[26] *646:io_la_oenb[24] 0.000138518
5 *646:io_la_data_in[26] *646:io_la_oenb[25] 0.000361441
6 *646:io_la_data_in[25] *646:io_la_data_in[26] 0.000341366
*RES
1 la_data_in[26] *646:io_la_data_in[26] 36.3925 
*END

*D_NET *191 0.0065432
*CONN
*P la_data_in[27] I
*I *646:io_la_data_in[27] I *D CaravelTopLevel
*CAP
1 la_data_in[27] 0.00154582
2 *646:io_la_data_in[27] 0.00154582
3 *646:io_la_data_in[27] la_data_out[25] 0
4 *646:io_la_data_in[27] la_data_out[26] 0.00116313
5 *646:io_la_data_in[27] la_data_out[27] 0.000379732
6 *646:io_la_data_in[27] *646:io_la_oenb[25] 0.00013102
7 *646:io_la_data_in[27] *646:io_la_oenb[26] 0.00177767
*RES
1 la_data_in[27] *646:io_la_data_in[27] 38.7303 
*END

*D_NET *192 0.00516024
*CONN
*P la_data_in[28] I
*I *646:io_la_data_in[28] I *D CaravelTopLevel
*CAP
1 la_data_in[28] 0.00167912
2 *646:io_la_data_in[28] 0.00167912
3 *646:io_la_data_in[28] la_data_out[28] 0.00151193
4 *646:io_la_data_in[28] la_data_out[29] 0
5 *646:io_la_data_in[28] *646:io_la_data_in[29] 0
6 *646:io_la_data_in[28] *646:io_la_oenb[27] 0.000290059
*RES
1 la_data_in[28] *646:io_la_data_in[28] 35.9632 
*END

*D_NET *193 0.00398899
*CONN
*P la_data_in[29] I
*I *646:io_la_data_in[29] I *D CaravelTopLevel
*CAP
1 la_data_in[29] 0.00167034
2 *646:io_la_data_in[29] 0.00167034
3 *646:io_la_data_in[29] la_data_out[29] 0.000161759
4 *646:io_la_data_in[29] *646:io_la_oenb[27] 0
5 *646:io_la_data_in[29] *646:io_la_oenb[28] 0.000486545
6 *646:io_la_data_in[28] *646:io_la_data_in[29] 0
*RES
1 la_data_in[29] *646:io_la_data_in[29] 35.7056 
*END

*D_NET *194 0.0117706
*CONN
*P la_data_in[2] I
*I *646:io_la_data_in[2] I *D CaravelTopLevel
*CAP
1 la_data_in[2] 0.00175162
2 *646:io_la_data_in[2] 0.00175162
3 *646:io_la_data_in[2] la_data_out[0] 0.000221319
4 *646:io_la_data_in[2] la_data_out[2] 0.00460928
5 *646:io_la_data_in[2] *646:io_la_oenb[3] 0.00224763
6 *646:io_la_data_in[2] *646:io_wbs_adr_i[31] 0.000297923
7 *646:io_la_data_in[0] *646:io_la_data_in[2] 0.000707026
8 *646:io_la_data_in[1] *646:io_la_data_in[2] 0.000184165
*RES
1 la_data_in[2] *646:io_la_data_in[2] 41.6304 
*END

*D_NET *195 0.00555032
*CONN
*P la_data_in[30] I
*I *646:io_la_data_in[30] I *D CaravelTopLevel
*CAP
1 la_data_in[30] 0.00120045
2 *646:io_la_data_in[30] 0.00120045
3 *646:io_la_data_in[30] la_data_out[29] 0.000744696
4 *646:io_la_data_in[30] la_data_out[30] 0.000241112
5 *646:io_la_data_in[30] *646:io_la_data_in[31] 0.000122056
6 *646:io_la_data_in[30] *646:io_la_oenb[29] 0.00130844
7 *646:io_la_data_in[30] *646:io_la_oenb[30] 0.000733125
*RES
1 la_data_in[30] *646:io_la_data_in[30] 35.1433 
*END

*D_NET *196 0.00455566
*CONN
*P la_data_in[31] I
*I *646:io_la_data_in[31] I *D CaravelTopLevel
*CAP
1 la_data_in[31] 0.0014436
2 *646:io_la_data_in[31] 0.0014436
3 *646:io_la_data_in[31] la_data_out[31] 0.0011513
4 *646:io_la_data_in[31] *646:io_la_data_in[32] 0.000171209
5 *646:io_la_data_in[31] *646:io_la_oenb[30] 0.00022389
6 *646:io_la_data_in[30] *646:io_la_data_in[31] 0.000122056
*RES
1 la_data_in[31] *646:io_la_data_in[31] 35.2763 
*END

*D_NET *197 0.00416751
*CONN
*P la_data_in[32] I
*I *646:io_la_data_in[32] I *D CaravelTopLevel
*CAP
1 la_data_in[32] 0.00129216
2 *646:io_la_data_in[32] 0.00129216
3 *646:io_la_data_in[32] la_data_out[31] 0.000272622
4 *646:io_la_data_in[32] la_data_out[32] 0.000312183
5 *646:io_la_data_in[32] *646:io_la_oenb[31] 0.000373815
6 *646:io_la_data_in[32] *646:io_la_oenb[32] 0.000453354
7 *646:io_la_data_in[31] *646:io_la_data_in[32] 0.000171209
*RES
1 la_data_in[32] *646:io_la_data_in[32] 35.1045 
*END

*D_NET *198 0.00412303
*CONN
*P la_data_in[33] I
*I *646:io_la_data_in[33] I *D CaravelTopLevel
*CAP
1 la_data_in[33] 0.00136037
2 *646:io_la_data_in[33] 0.00136037
3 *646:io_la_data_in[33] la_data_out[32] 0.000406026
4 *646:io_la_data_in[33] la_data_out[33] 0.000901243
5 *646:io_la_data_in[33] *646:io_la_oenb[32] 9.50256e-05
*RES
1 la_data_in[33] *646:io_la_data_in[33] 34.8469 
*END

*D_NET *199 0.00371485
*CONN
*P la_data_in[34] I
*I *646:io_la_data_in[34] I *D CaravelTopLevel
*CAP
1 la_data_in[34] 0.00119537
2 *646:io_la_data_in[34] 0.00119537
3 *646:io_la_data_in[34] la_data_out[33] 0.000358698
4 *646:io_la_data_in[34] la_data_out[34] 0.000827782
5 *646:io_la_data_in[34] *646:io_la_oenb[33] 0.000137633
*RES
1 la_data_in[34] *646:io_la_data_in[34] 34.6752 
*END

*D_NET *200 0.00352305
*CONN
*P la_data_in[35] I
*I *646:io_la_data_in[35] I *D CaravelTopLevel
*CAP
1 la_data_in[35] 0.00108005
2 *646:io_la_data_in[35] 0.00108005
3 *646:io_la_data_in[35] la_data_out[34] 0.000169384
4 *646:io_la_data_in[35] la_data_out[35] 0.000733125
5 *646:io_la_data_in[35] *646:io_la_data_in[36] 0
6 *646:io_la_data_in[35] *646:io_la_oenb[34] 0.000310436
7 *646:io_la_data_in[35] *646:io_la_oenb[35] 0.000150004
*RES
1 la_data_in[35] *646:io_la_data_in[35] 34.0271 
*END

*D_NET *201 0.00353093
*CONN
*P la_data_in[36] I
*I *646:io_la_data_in[36] I *D CaravelTopLevel
*CAP
1 la_data_in[36] 0.00122496
2 *646:io_la_data_in[36] 0.00122496
3 *646:io_la_data_in[36] la_data_out[35] 0.00016857
4 *646:io_la_data_in[36] la_data_out[36] 0.000309732
5 *646:io_la_data_in[36] *646:io_la_oenb[35] 0.000602702
6 *646:io_la_data_in[35] *646:io_la_data_in[36] 0
*RES
1 la_data_in[36] *646:io_la_data_in[36] 34.2459 
*END

*D_NET *202 0.00309988
*CONN
*P la_data_in[37] I
*I *646:io_la_data_in[37] I *D CaravelTopLevel
*CAP
1 la_data_in[37] 0.00123511
2 *646:io_la_data_in[37] 0.00123511
3 *646:io_la_data_in[37] la_data_out[37] 0.000453354
4 *646:io_la_data_in[37] *646:io_la_oenb[36] 0.000176314
5 *646:io_la_data_in[37] *646:io_la_oenb[37] 0
*RES
1 la_data_in[37] *646:io_la_data_in[37] 33.9883 
*END

*D_NET *203 0.00268532
*CONN
*P la_data_in[38] I
*I *646:io_la_data_in[38] I *D CaravelTopLevel
*CAP
1 la_data_in[38] 0.00106772
2 *646:io_la_data_in[38] 0.00106772
3 *646:io_la_data_in[38] la_data_out[37] 0
4 *646:io_la_data_in[38] la_data_out[38] 0.000358698
5 *646:io_la_data_in[38] *646:io_la_oenb[37] 0.000191192
*RES
1 la_data_in[38] *646:io_la_data_in[38] 33.7307 
*END

*D_NET *204 0.00292991
*CONN
*P la_data_in[39] I
*I *646:io_la_data_in[39] I *D CaravelTopLevel
*CAP
1 la_data_in[39] 0.00123468
2 *646:io_la_data_in[39] 0.00123468
3 *646:io_la_data_in[39] la_data_out[39] 0.000196512
4 *646:io_la_data_in[39] *646:io_la_oenb[38] 0.000264041
*RES
1 la_data_in[39] *646:io_la_data_in[39] 33.5589 
*END

*D_NET *205 0.0115588
*CONN
*P la_data_in[3] I
*I *646:io_la_data_in[3] I *D CaravelTopLevel
*CAP
1 la_data_in[3] 0.000704303
2 *646:io_la_data_in[3] 0.000134224
3 *205:9 0.00126381
4 *205:7 0.00183388
5 *205:9 *333:11 0.00426835
6 *205:9 *400:9 0.000310998
7 *205:9 *439:9 0.00279957
8 *646:io_la_data_in[0] *205:7 0
9 *646:io_la_data_in[1] *205:9 0.00024363
*RES
1 la_data_in[3] *205:7 28.9821 
2 *205:7 *205:9 52.0757 
3 *205:9 *646:io_la_data_in[3] 17.0611 
*END

*D_NET *206 0.00250269
*CONN
*P la_data_in[40] I
*I *646:io_la_data_in[40] I *D CaravelTopLevel
*CAP
1 la_data_in[40] 0.00112279
2 *646:io_la_data_in[40] 0.00112279
3 *646:io_la_data_in[40] la_data_out[40] 0.00011057
4 *646:io_la_data_in[40] *646:io_la_oenb[39] 0.000146528
*RES
1 la_data_in[40] *646:io_la_data_in[40] 33.3013 
*END

*D_NET *207 0.00213711
*CONN
*P la_data_in[41] I
*I *646:io_la_data_in[41] I *D CaravelTopLevel
*CAP
1 la_data_in[41] 0.00102252
2 *646:io_la_data_in[41] 0.00102252
3 *646:io_la_data_in[41] la_data_out[41] 6.39383e-05
4 *646:io_la_data_in[41] *646:io_la_oenb[40] 2.81221e-05
*RES
1 la_data_in[41] *646:io_la_data_in[41] 33.1296 
*END

*D_NET *208 0.00176199
*CONN
*P la_data_in[42] I
*I *646:io_la_data_in[42] I *D CaravelTopLevel
*CAP
1 la_data_in[42] 0.000860543
2 *646:io_la_data_in[42] 0.000860543
3 *646:io_la_data_in[42] *646:io_la_oenb[41] 4.09095e-05
*RES
1 la_data_in[42] *646:io_la_data_in[42] 20.4761 
*END

*D_NET *209 0.00167565
*CONN
*P la_data_in[43] I
*I *646:io_la_data_in[43] I *D CaravelTopLevel
*CAP
1 la_data_in[43] 0.000837824
2 *646:io_la_data_in[43] 0.000837824
3 *646:io_la_data_in[43] la_data_out[43] 0
*RES
1 la_data_in[43] *646:io_la_data_in[43] 19.3782 
*END

*D_NET *210 0.00153309
*CONN
*P la_data_in[44] I
*I *646:io_la_data_in[44] I *D CaravelTopLevel
*CAP
1 la_data_in[44] 0.000766545
2 *646:io_la_data_in[44] 0.000766545
3 *646:io_la_data_in[44] *646:io_la_oenb[43] 0
*RES
1 la_data_in[44] *646:io_la_data_in[44] 17.8039 
*END

*D_NET *211 0.00145425
*CONN
*P la_data_in[45] I
*I *646:io_la_data_in[45] I *D CaravelTopLevel
*CAP
1 la_data_in[45] 0.000727126
2 *646:io_la_data_in[45] 0.000727126
*RES
1 la_data_in[45] *646:io_la_data_in[45] 16.8511 
*END

*D_NET *212 0.00133599
*CONN
*P la_data_in[46] I
*I *646:io_la_data_in[46] I *D CaravelTopLevel
*CAP
1 la_data_in[46] 0.000667996
2 *646:io_la_data_in[46] 0.000667996
*RES
1 la_data_in[46] *646:io_la_data_in[46] 15.4218 
*END

*D_NET *213 0.00125849
*CONN
*P la_data_in[47] I
*I *646:io_la_data_in[47] I *D CaravelTopLevel
*CAP
1 la_data_in[47] 0.000629245
2 *646:io_la_data_in[47] 0.000629245
*RES
1 la_data_in[47] *646:io_la_data_in[47] 14.6139 
*END

*D_NET *214 0.00133599
*CONN
*P la_data_in[48] I
*I *646:io_la_data_in[48] I *D CaravelTopLevel
*CAP
1 la_data_in[48] 0.000667996
2 *646:io_la_data_in[48] 0.000667996
*RES
1 la_data_in[48] *646:io_la_data_in[48] 15.4218 
*END

*D_NET *215 0.00145425
*CONN
*P la_data_in[49] I
*I *646:io_la_data_in[49] I *D CaravelTopLevel
*CAP
1 la_data_in[49] 0.000727126
2 *646:io_la_data_in[49] 0.000727126
*RES
1 la_data_in[49] *646:io_la_data_in[49] 16.8511 
*END

*D_NET *216 0.0120795
*CONN
*P la_data_in[4] I
*I *646:io_la_data_in[4] I *D CaravelTopLevel
*CAP
1 la_data_in[4] 0.00183415
2 *646:io_la_data_in[4] 0.00183415
3 *646:io_la_data_in[4] la_data_out[5] 0.000427807
4 *646:io_la_data_in[4] *646:io_la_data_in[6] 0.00137142
5 *646:io_la_data_in[4] *646:io_la_data_in[7] 0
6 *646:io_la_data_in[4] *646:io_la_oenb[2] 0.00275985
7 *646:io_la_data_in[4] *646:io_la_oenb[4] 0.00373609
8 *646:io_la_data_in[4] *646:io_la_oenb[6] 0.000116001
*RES
1 la_data_in[4] *646:io_la_data_in[4] 41.2011 
*END

*D_NET *217 0.00153309
*CONN
*P la_data_in[50] I
*I *646:io_la_data_in[50] I *D CaravelTopLevel
*CAP
1 la_data_in[50] 0.000766545
2 *646:io_la_data_in[50] 0.000766545
3 *646:io_la_data_in[50] la_data_out[50] 0
*RES
1 la_data_in[50] *646:io_la_data_in[50] 17.8039 
*END

*D_NET *218 0.00167565
*CONN
*P la_data_in[51] I
*I *646:io_la_data_in[51] I *D CaravelTopLevel
*CAP
1 la_data_in[51] 0.000837824
2 *646:io_la_data_in[51] 0.000837824
3 *646:io_la_data_in[51] *646:io_la_oenb[50] 0
*RES
1 la_data_in[51] *646:io_la_data_in[51] 19.3782 
*END

*D_NET *219 0.00188004
*CONN
*P la_data_in[52] I
*I *646:io_la_data_in[52] I *D CaravelTopLevel
*CAP
1 la_data_in[52] 0.000938642
2 *646:io_la_data_in[52] 0.000938642
3 *646:io_la_data_in[52] la_data_out[52] 2.75733e-06
4 *646:io_la_data_in[52] *646:io_la_oenb[51] 0
*RES
1 la_data_in[52] *646:io_la_data_in[52] 32.872 
*END

*D_NET *220 0.00213704
*CONN
*P la_data_in[53] I
*I *646:io_la_data_in[53] I *D CaravelTopLevel
*CAP
1 la_data_in[53] 0.00102249
2 *646:io_la_data_in[53] 0.00102249
3 *646:io_la_data_in[53] la_data_out[53] 2.81221e-05
4 *646:io_la_data_in[53] *646:io_la_oenb[52] 6.3933e-05
*RES
1 la_data_in[53] *646:io_la_data_in[53] 33.1296 
*END

*D_NET *221 0.00245374
*CONN
*P la_data_in[54] I
*I *646:io_la_data_in[54] I *D CaravelTopLevel
*CAP
1 la_data_in[54] 0.00112655
2 *646:io_la_data_in[54] 0.00112655
3 *646:io_la_data_in[54] la_data_out[54] 6.52226e-05
4 *646:io_la_data_in[54] *646:io_la_oenb[53] 0.000135416
*RES
1 la_data_in[54] *646:io_la_data_in[54] 33.3013 
*END

*D_NET *222 0.00271785
*CONN
*P la_data_in[55] I
*I *646:io_la_data_in[55] I *D CaravelTopLevel
*CAP
1 la_data_in[55] 0.00102564
2 *646:io_la_data_in[55] 0.00102564
3 *646:io_la_data_in[55] la_data_out[55] 0.000449878
4 *646:io_la_data_in[55] *646:io_la_oenb[54] 0.000216704
5 *646:io_la_data_in[55] *646:io_la_oenb[55] 0
*RES
1 la_data_in[55] *646:io_la_data_in[55] 33.5589 
*END

*D_NET *223 0.00249847
*CONN
*P la_data_in[56] I
*I *646:io_la_data_in[56] I *D CaravelTopLevel
*CAP
1 la_data_in[56] 0.00108612
2 *646:io_la_data_in[56] 0.00108612
3 *646:io_la_data_in[56] la_data_out[56] 0.000131664
4 *646:io_la_data_in[56] *646:io_la_oenb[55] 0.000194571
*RES
1 la_data_in[56] *646:io_la_data_in[56] 33.7307 
*END

*D_NET *224 0.00313538
*CONN
*P la_data_in[57] I
*I *646:io_la_data_in[57] I *D CaravelTopLevel
*CAP
1 la_data_in[57] 0.00125248
2 *646:io_la_data_in[57] 0.00125248
3 *646:io_la_data_in[57] la_data_out[56] 2.81221e-05
4 *646:io_la_data_in[57] la_data_out[57] 0.00029805
5 *646:io_la_data_in[57] *646:io_la_oenb[56] 0.000304255
*RES
1 la_data_in[57] *646:io_la_data_in[57] 32.9025 
*END

*D_NET *225 0.00372261
*CONN
*P la_data_in[58] I
*I *646:io_la_data_in[58] I *D CaravelTopLevel
*CAP
1 la_data_in[58] 0.00123384
2 *646:io_la_data_in[58] 0.00123384
3 *646:io_la_data_in[58] la_data_out[57] 0.000115611
4 *646:io_la_data_in[58] la_data_out[58] 0.000328121
5 *646:io_la_data_in[58] *646:io_la_data_in[59] 0
6 *646:io_la_data_in[58] *646:io_la_oenb[57] 0.000547164
7 *646:io_la_data_in[58] *646:io_la_oenb[58] 0.000264032
*RES
1 la_data_in[58] *646:io_la_data_in[58] 34.2459 
*END

*D_NET *226 0.00358741
*CONN
*P la_data_in[59] I
*I *646:io_la_data_in[59] I *D CaravelTopLevel
*CAP
1 la_data_in[59] 0.00126214
2 *646:io_la_data_in[59] 0.00126214
3 *646:io_la_data_in[59] la_data_out[58] 0.000110159
4 *646:io_la_data_in[59] la_data_out[59] 0.000163377
5 *646:io_la_data_in[59] *646:io_la_oenb[58] 0.0006985
6 *646:io_la_data_in[59] *646:io_la_oenb[59] 9.10923e-05
7 *646:io_la_data_in[58] *646:io_la_data_in[59] 0
*RES
1 la_data_in[59] *646:io_la_data_in[59] 34.0271 
*END

*D_NET *227 0.0120589
*CONN
*P la_data_in[5] I
*I *646:io_la_data_in[5] I *D CaravelTopLevel
*CAP
1 la_data_in[5] 0.00182125
2 *646:io_la_data_in[5] 0.00182125
3 *646:io_la_data_in[5] la_data_out[2] 0.00040255
4 *646:io_la_data_in[5] la_data_out[4] 0.00056667
5 *646:io_la_data_in[5] la_data_out[5] 0.00427366
6 *646:io_la_data_in[5] *646:io_la_data_in[7] 0.000328374
7 *646:io_la_data_in[5] *646:io_la_oenb[2] 0.000111764
8 *646:io_la_data_in[5] *646:io_la_oenb[3] 0.00262981
9 *646:io_la_data_in[5] *505:11 0.000103555
*RES
1 la_data_in[5] *646:io_la_data_in[5] 40.6388 
*END

*D_NET *228 0.00338785
*CONN
*P la_data_in[60] I
*I *646:io_la_data_in[60] I *D CaravelTopLevel
*CAP
1 la_data_in[60] 0.00143739
2 *646:io_la_data_in[60] 0.00143739
3 *646:io_la_data_in[60] la_data_out[59] 0.000216704
4 *646:io_la_data_in[60] *646:io_la_oenb[59] 0.00029636
*RES
1 la_data_in[60] *646:io_la_data_in[60] 34.6752 
*END

*D_NET *229 0.0039508
*CONN
*P la_data_in[61] I
*I *646:io_la_data_in[61] I *D CaravelTopLevel
*CAP
1 la_data_in[61] 0.00151205
2 *646:io_la_data_in[61] 0.00151205
3 *646:io_la_data_in[61] la_data_out[60] 0
4 *646:io_la_data_in[61] la_data_out[61] 0.000926712
*RES
1 la_data_in[61] *646:io_la_data_in[61] 34.8469 
*END

*D_NET *230 0.00388332
*CONN
*P la_data_in[62] I
*I *646:io_la_data_in[62] I *D CaravelTopLevel
*CAP
1 la_data_in[62] 0.00147524
2 *646:io_la_data_in[62] 0.00147524
3 *646:io_la_data_in[62] la_data_out[62] 0.000267983
4 *646:io_la_data_in[62] *646:io_la_oenb[62] 0.000664856
*RES
1 la_data_in[62] *646:io_la_data_in[62] 33.5926 
*END

*D_NET *231 0.0046251
*CONN
*P la_data_in[63] I
*I *646:io_la_data_in[63] I *D CaravelTopLevel
*CAP
1 la_data_in[63] 0.00148746
2 *646:io_la_data_in[63] 0.00148746
3 *646:io_la_data_in[63] la_data_out[62] 0.000729437
4 *646:io_la_data_in[63] la_data_out[64] 0
5 *646:io_la_data_in[63] *646:io_la_data_in[64] 0
6 *646:io_la_data_in[63] *646:io_la_oenb[62] 0.000176758
7 *646:io_la_data_in[63] *646:io_la_oenb[63] 0.000743979
*RES
1 la_data_in[63] *646:io_la_data_in[63] 34.3961 
*END

*D_NET *232 0.00464479
*CONN
*P la_data_in[64] I
*I *646:io_la_data_in[64] I *D CaravelTopLevel
*CAP
1 la_data_in[64] 0.0014706
2 *646:io_la_data_in[64] 0.0014706
3 *646:io_la_data_in[64] la_data_out[64] 0.00143676
4 *646:io_la_data_in[64] *646:io_la_oenb[62] 0
5 *646:io_la_data_in[64] *646:io_la_oenb[63] 0.000266829
6 *646:io_la_data_in[63] *646:io_la_data_in[64] 0
*RES
1 la_data_in[64] *646:io_la_data_in[64] 34.0219 
*END

*D_NET *233 0.00481038
*CONN
*P la_data_in[65] I
*I *646:io_la_data_in[65] I *D CaravelTopLevel
*CAP
1 la_data_in[65] 0.00150439
2 *646:io_la_data_in[65] 0.00150439
3 *646:io_la_data_in[65] la_data_out[65] 0.000259819
4 *646:io_la_data_in[65] *646:io_la_oenb[64] 0.00154178
*RES
1 la_data_in[65] *646:io_la_data_in[65] 35.5297 
*END

*D_NET *234 0.00481755
*CONN
*P la_data_in[66] I
*I *646:io_la_data_in[66] I *D CaravelTopLevel
*CAP
1 la_data_in[66] 0.00141244
2 *646:io_la_data_in[66] 0.00141244
3 *646:io_la_data_in[66] la_data_out[67] 4.93913e-05
4 *646:io_la_data_in[66] *646:io_la_oenb[64] 3.90663e-05
5 *646:io_la_data_in[66] *646:io_la_oenb[65] 0.00163701
6 *646:io_la_data_in[66] *646:io_la_oenb[66] 0.000267206
*RES
1 la_data_in[66] *646:io_la_data_in[66] 34.4512 
*END

*D_NET *235 0.0049372
*CONN
*P la_data_in[67] I
*I *646:io_la_data_in[67] I *D CaravelTopLevel
*CAP
1 la_data_in[67] 0.00174149
2 *646:io_la_data_in[67] 0.00174149
3 *646:io_la_data_in[67] la_data_out[66] 0.000633408
4 *646:io_la_data_in[67] *646:io_la_data_in[68] 0.000721329
5 *646:io_la_data_in[67] *646:io_la_oenb[66] 9.94827e-05
*RES
1 la_data_in[67] *646:io_la_data_in[67] 36.7492 
*END

*D_NET *236 0.00585811
*CONN
*P la_data_in[68] I
*I *646:io_la_data_in[68] I *D CaravelTopLevel
*CAP
1 la_data_in[68] 0.00166748
2 *646:io_la_data_in[68] 0.00166748
3 *646:io_la_data_in[68] la_data_out[67] 0.000103333
4 *646:io_la_data_in[68] la_data_out[68] 0.000267474
5 *646:io_la_data_in[68] *646:io_la_oenb[66] 8.15529e-05
6 *646:io_la_data_in[68] *646:io_la_oenb[68] 0.00134946
7 *646:io_la_data_in[67] *646:io_la_data_in[68] 0.000721329
*RES
1 la_data_in[68] *646:io_la_data_in[68] 36.2167 
*END

*D_NET *237 0.00728749
*CONN
*P la_data_in[69] I
*I *646:io_la_data_in[69] I *D CaravelTopLevel
*CAP
1 la_data_in[69] 0.00129035
2 *646:io_la_data_in[69] 0.00129035
3 *646:io_la_data_in[69] la_data_out[68] 0.00137875
4 *646:io_la_data_in[69] la_data_out[69] 0.00204338
5 *646:io_la_data_in[69] *646:io_la_data_in[70] 0.00095715
6 *646:io_la_data_in[69] *646:io_la_oenb[67] 0.000218598
7 *646:io_la_data_in[69] *646:io_la_oenb[68] 0.000108921
*RES
1 la_data_in[69] *646:io_la_data_in[69] 35.1382 
*END

*D_NET *238 0.010786
*CONN
*P la_data_in[6] I
*I *646:io_la_data_in[6] I *D CaravelTopLevel
*CAP
1 la_data_in[6] 0.0018765
2 *646:io_la_data_in[6] 0.0018765
3 *646:io_la_data_in[6] la_data_out[5] 0.00356678
4 *646:io_la_data_in[6] la_data_out[6] 0.000780187
5 *646:io_la_data_in[6] la_data_out[8] 0
6 *646:io_la_data_in[6] *646:io_la_data_in[8] 0.000613392
7 *646:io_la_data_in[6] *646:io_la_oenb[4] 0.000600063
8 *646:io_la_data_in[6] *388:11 0.000101159
9 *646:io_la_data_in[4] *646:io_la_data_in[6] 0.00137142
*RES
1 la_data_in[6] *646:io_la_data_in[6] 40.7717 
*END

*D_NET *239 0.00699692
*CONN
*P la_data_in[70] I
*I *646:io_la_data_in[70] I *D CaravelTopLevel
*CAP
1 la_data_in[70] 0.0013317
2 *646:io_la_data_in[70] 0.0013317
3 *646:io_la_data_in[70] la_data_out[69] 0.000267474
4 *646:io_la_data_in[70] *646:io_la_data_in[71] 0.000882559
5 *646:io_la_data_in[70] *646:io_la_oenb[68] 0.000368456
6 *646:io_la_data_in[70] *646:io_la_oenb[69] 0.000357655
7 *646:io_la_data_in[70] *646:io_la_oenb[70] 0.00142696
8 *646:io_la_data_in[70] *646:io_la_oenb[71] 7.3271e-05
9 *646:io_la_data_in[69] *646:io_la_data_in[70] 0.00095715
*RES
1 la_data_in[70] *646:io_la_data_in[70] 36.5541 
*END

*D_NET *240 0.00740134
*CONN
*P la_data_in[71] I
*I *646:io_la_data_in[71] I *D CaravelTopLevel
*CAP
1 la_data_in[71] 0.00165303
2 *646:io_la_data_in[71] 0.00165303
3 *646:io_la_data_in[71] *646:io_la_data_in[72] 0.00116328
4 *646:io_la_data_in[71] *646:io_la_oenb[70] 0.000343044
5 *646:io_la_data_in[71] *646:io_la_oenb[71] 0.00170639
6 *646:io_la_data_in[70] *646:io_la_data_in[71] 0.000882559
*RES
1 la_data_in[71] *646:io_la_data_in[71] 35.5675 
*END

*D_NET *241 0.00722867
*CONN
*P la_data_in[72] I
*I *646:io_la_data_in[72] I *D CaravelTopLevel
*CAP
1 la_data_in[72] 0.00155784
2 *646:io_la_data_in[72] 0.00155784
3 *646:io_la_data_in[72] la_data_out[71] 0.000545077
4 *646:io_la_data_in[72] la_data_out[73] 0.000711328
5 *646:io_la_data_in[72] *646:io_la_data_in[73] 0.000489188
6 *646:io_la_data_in[72] *646:io_la_data_in[74] 0
7 *646:io_la_data_in[72] *646:io_la_oenb[70] 0.000505197
8 *646:io_la_data_in[72] *646:io_la_oenb[71] 0.000698913
9 *646:io_la_data_in[71] *646:io_la_data_in[72] 0.00116328
*RES
1 la_data_in[72] *646:io_la_data_in[72] 35.2014 
*END

*D_NET *242 0.00827129
*CONN
*P la_data_in[73] I
*I *646:io_la_data_in[73] I *D CaravelTopLevel
*CAP
1 la_data_in[73] 0.00137167
2 *646:io_la_data_in[73] 0.00137167
3 *646:io_la_data_in[73] la_data_out[71] 0.000185405
4 *646:io_la_data_in[73] la_data_out[72] 0.000437386
5 *646:io_la_data_in[73] la_data_out[73] 0.00246623
6 *646:io_la_data_in[73] *646:io_la_oenb[73] 0.00194974
7 *646:io_la_data_in[72] *646:io_la_data_in[73] 0.000489188
*RES
1 la_data_in[73] *646:io_la_data_in[73] 36.6286 
*END

*D_NET *243 0.00630222
*CONN
*P la_data_in[74] I
*I *646:io_la_data_in[74] I *D CaravelTopLevel
*CAP
1 la_data_in[74] 0.00187123
2 *646:io_la_data_in[74] 0.00187123
3 *646:io_la_data_in[74] la_data_out[72] 0
4 *646:io_la_data_in[74] la_data_out[73] 0.000534947
5 *646:io_la_data_in[74] *646:io_la_oenb[74] 0.00202481
6 *646:io_la_data_in[72] *646:io_la_data_in[74] 0
*RES
1 la_data_in[74] *646:io_la_data_in[74] 36.1686 
*END

*D_NET *244 0.00813512
*CONN
*P la_data_in[75] I
*I *646:io_la_data_in[75] I *D CaravelTopLevel
*CAP
1 la_data_in[75] 0.00138444
2 *646:io_la_data_in[75] 0
3 *244:17 0.00138444
4 *244:17 la_data_out[73] 0.000368456
5 *244:17 la_data_out[74] 0.000932414
6 *244:17 la_data_out[76] 0.000869842
7 *244:17 *646:io_la_data_in[77] 0.000563651
8 *244:17 *646:io_la_oenb[73] 0.000961004
9 *244:17 *646:io_la_oenb[74] 0.00112149
10 *244:17 *646:io_la_oenb[75] 0.000105747
11 *244:17 *646:io_la_oenb[76] 0.000443637
*RES
1 la_data_in[75] *244:17 45.259 
2 *244:17 *646:io_la_data_in[75] 8 
*END

*D_NET *245 0.00701678
*CONN
*P la_data_in[76] I
*I *646:io_la_data_in[76] I *D CaravelTopLevel
*CAP
1 la_data_in[76] 0.00202751
2 *646:io_la_data_in[76] 0.00202751
3 *646:io_la_data_in[76] la_data_out[75] 0.00196602
4 *646:io_la_data_in[76] la_data_out[76] 0.000221982
5 *646:io_la_data_in[76] *646:io_la_data_in[78] 9.4972e-05
6 *646:io_la_data_in[76] *646:io_la_oenb[75] 0.000678781
*RES
1 la_data_in[76] *646:io_la_data_in[76] 39.5815 
*END

*D_NET *246 0.00570469
*CONN
*P la_data_in[77] I
*I *646:io_la_data_in[77] I *D CaravelTopLevel
*CAP
1 la_data_in[77] 0.00252545
2 *646:io_la_data_in[77] 0.00252545
3 *646:io_la_data_in[77] *646:io_la_data_in[79] 9.0138e-05
4 *646:io_la_data_in[77] *646:io_la_oenb[78] 0
5 *244:17 *646:io_la_data_in[77] 0.000563651
*RES
1 la_data_in[77] *646:io_la_data_in[77] 40.5959 
*END

*D_NET *247 0.0069601
*CONN
*P la_data_in[78] I
*I *646:io_la_data_in[78] I *D CaravelTopLevel
*CAP
1 la_data_in[78] 0.0023644
2 *646:io_la_data_in[78] 0.0023644
3 *646:io_la_data_in[78] la_data_out[76] 0.000728519
4 *646:io_la_data_in[78] la_data_out[78] 0.0014078
5 *646:io_la_data_in[78] la_data_out[80] 0
6 *646:io_la_data_in[78] *646:io_la_data_in[80] 0
7 *646:io_la_data_in[76] *646:io_la_data_in[78] 9.4972e-05
*RES
1 la_data_in[78] *646:io_la_data_in[78] 39.1535 
*END

*D_NET *248 0.00703887
*CONN
*P la_data_in[79] I
*I *646:io_la_data_in[79] I *D CaravelTopLevel
*CAP
1 la_data_in[79] 0.00223795
2 *646:io_la_data_in[79] 0.00223795
3 *646:io_la_data_in[79] la_data_out[79] 0.00171419
4 *646:io_la_data_in[79] la_data_out[80] 0.000370723
5 *646:io_la_data_in[79] *646:io_la_data_in[81] 0.000387925
6 *646:io_la_data_in[79] *646:io_la_oenb[76] 0
7 *646:io_la_data_in[79] *646:io_la_oenb[78] 0
8 *646:io_la_data_in[77] *646:io_la_data_in[79] 9.0138e-05
*RES
1 la_data_in[79] *646:io_la_data_in[79] 38.8356 
*END

*D_NET *249 0.0112624
*CONN
*P la_data_in[7] I
*I *646:io_la_data_in[7] I *D CaravelTopLevel
*CAP
1 la_data_in[7] 0.00270135
2 *646:io_la_data_in[7] 0.00270135
3 *646:io_la_data_in[7] la_data_out[4] 0.000121481
4 *646:io_la_data_in[7] la_data_out[5] 5.09438e-05
5 *646:io_la_data_in[7] la_data_out[7] 0
6 *646:io_la_data_in[7] *646:io_la_data_in[8] 0.000844513
7 *646:io_la_data_in[7] *646:io_la_oenb[6] 0.00406697
8 *646:io_la_data_in[7] *505:11 0.000210294
9 *646:io_la_data_in[7] *505:17 0.000237071
10 *646:io_la_data_in[4] *646:io_la_data_in[7] 0
11 *646:io_la_data_in[5] *646:io_la_data_in[7] 0.000328374
*RES
1 la_data_in[7] *646:io_la_data_in[7] 39.088 
*END

*D_NET *250 0.00897331
*CONN
*P la_data_in[80] I
*I *646:io_la_data_in[80] I *D CaravelTopLevel
*CAP
1 la_data_in[80] 0.00243362
2 *646:io_la_data_in[80] 0.00243362
3 *646:io_la_data_in[80] la_data_out[78] 0.000430865
4 *646:io_la_data_in[80] la_data_out[82] 0.000453922
5 *646:io_la_data_in[80] *646:io_la_oenb[79] 0.00322127
6 *646:io_la_data_in[78] *646:io_la_data_in[80] 0
*RES
1 la_data_in[80] *646:io_la_data_in[80] 37.5424 
*END

*D_NET *251 0.00752799
*CONN
*P la_data_in[81] I
*I *646:io_la_data_in[81] I *D CaravelTopLevel
*CAP
1 la_data_in[81] 0.00193156
2 *646:io_la_data_in[81] 0.00193156
3 *646:io_la_data_in[81] la_data_out[79] 0.000158728
4 *646:io_la_data_in[81] la_data_out[80] 0.0007432
5 *646:io_la_data_in[81] la_data_out[82] 0.000638557
6 *646:io_la_data_in[81] *646:io_la_data_in[82] 0.00124466
7 *646:io_la_data_in[81] *646:io_la_data_in[83] 0.000389284
8 *646:io_la_data_in[81] *646:io_la_oenb[78] 0
9 *646:io_la_data_in[81] *646:io_la_oenb[80] 0
10 *646:io_la_data_in[81] *646:io_la_oenb[81] 0.000102535
11 *646:io_la_data_in[79] *646:io_la_data_in[81] 0.000387925
*RES
1 la_data_in[81] *646:io_la_data_in[81] 40.5428 
*END

*D_NET *252 0.0104432
*CONN
*P la_data_in[82] I
*I *646:io_la_data_in[82] I *D CaravelTopLevel
*CAP
1 la_data_in[82] 0.00196522
2 *646:io_la_data_in[82] 0.00196522
3 *646:io_la_data_in[82] *646:io_la_data_in[83] 0.00128776
4 *646:io_la_data_in[82] *646:io_la_oenb[79] 0.000505127
5 *646:io_la_data_in[82] *646:io_la_oenb[81] 0.003372
6 *646:io_la_data_in[82] *646:io_la_oenb[84] 0
7 *646:io_la_data_in[82] *509:11 0.000103264
8 *646:io_la_data_in[81] *646:io_la_data_in[82] 0.00124466
*RES
1 la_data_in[82] *646:io_la_data_in[82] 43.7767 
*END

*D_NET *253 0.00948142
*CONN
*P la_data_in[83] I
*I *646:io_la_data_in[83] I *D CaravelTopLevel
*CAP
1 la_data_in[83] 0.00201601
2 *646:io_la_data_in[83] 0.00201601
3 *646:io_la_data_in[83] la_data_out[82] 0.00290838
4 *646:io_la_data_in[83] la_data_out[83] 0
5 *646:io_la_data_in[83] la_data_out[84] 0
6 *646:io_la_data_in[83] *646:io_la_oenb[80] 0.000113979
7 *646:io_la_data_in[83] *646:io_la_oenb[84] 0.000749996
8 *646:io_la_data_in[83] *646:io_la_oenb[85] 0
9 *646:io_la_data_in[81] *646:io_la_data_in[83] 0.000389284
10 *646:io_la_data_in[82] *646:io_la_data_in[83] 0.00128776
*RES
1 la_data_in[83] *646:io_la_data_in[83] 39.6555 
*END

*D_NET *254 0.00873168
*CONN
*P la_data_in[84] I
*I *646:io_la_data_in[84] I *D CaravelTopLevel
*CAP
1 la_data_in[84] 0.00303449
2 *646:io_la_data_in[84] 0.00303449
3 *646:io_la_data_in[84] la_data_out[83] 0.000560261
4 *646:io_la_data_in[84] la_data_out[85] 0
5 *646:io_la_data_in[84] la_data_out[86] 0
6 *646:io_la_data_in[84] *646:io_la_data_in[86] 0.000171963
7 *646:io_la_data_in[84] *646:io_la_oenb[82] 0.00193048
8 *646:io_la_data_in[84] *646:io_la_oenb[86] 0
*RES
1 la_data_in[84] *646:io_la_data_in[84] 38.3286 
*END

*D_NET *255 0.0114243
*CONN
*P la_data_in[85] I
*I *646:io_la_data_in[85] I *D CaravelTopLevel
*CAP
1 la_data_in[85] 0.00227336
2 *646:io_la_data_in[85] 0.00227336
3 *646:io_la_data_in[85] la_data_out[82] 0
4 *646:io_la_data_in[85] la_data_out[87] 0
5 *646:io_la_data_in[85] *646:io_la_oenb[82] 0.000362142
6 *646:io_la_data_in[85] *646:io_la_oenb[84] 0.00387611
7 *646:io_la_data_in[85] *646:io_la_oenb[86] 0.0013259
8 *646:io_la_data_in[85] *646:io_la_oenb[87] 3.87911e-05
9 *646:io_la_data_in[85] *509:11 0.0007604
10 *646:io_la_data_in[85] *511:11 0.000514261
*RES
1 la_data_in[85] *646:io_la_data_in[85] 42.6905 
*END

*D_NET *256 0.00894145
*CONN
*P la_data_in[86] I
*I *646:io_la_data_in[86] I *D CaravelTopLevel
*CAP
1 la_data_in[86] 0.00231342
2 *646:io_la_data_in[86] 0.00231342
3 *646:io_la_data_in[86] la_data_out[83] 0
4 *646:io_la_data_in[86] la_data_out[85] 0.000211637
5 *646:io_la_data_in[86] la_data_out[86] 0.003931
6 *646:io_la_data_in[86] *646:io_la_oenb[88] 0
7 *646:io_la_data_in[84] *646:io_la_data_in[86] 0.000171963
*RES
1 la_data_in[86] *646:io_la_data_in[86] 40.3424 
*END

*D_NET *257 0.0117533
*CONN
*P la_data_in[87] I
*I *646:io_la_data_in[87] I *D CaravelTopLevel
*CAP
1 la_data_in[87] 0.00156075
2 *646:io_la_data_in[87] 0.00156075
3 *646:io_la_data_in[87] la_data_out[85] 0.00181747
4 *646:io_la_data_in[87] la_data_out[86] 0.00364301
5 *646:io_la_data_in[87] la_data_out[87] 0.000340507
6 *646:io_la_data_in[87] la_data_out[88] 0.00238931
7 *646:io_la_data_in[87] *646:io_la_data_in[89] 0.000365283
8 *646:io_la_data_in[87] *646:io_la_oenb[86] 0
9 *646:io_la_data_in[87] *646:io_la_oenb[89] 7.62082e-05
*RES
1 la_data_in[87] *646:io_la_data_in[87] 39.5142 
*END

*D_NET *258 0.00946194
*CONN
*P la_data_in[88] I
*I *646:io_la_data_in[88] I *D CaravelTopLevel
*CAP
1 la_data_in[88] 0.00262895
2 *646:io_la_data_in[88] 0.00262895
3 *646:io_la_data_in[88] la_data_out[85] 5.49449e-05
4 *646:io_la_data_in[88] la_data_out[87] 0.00352446
5 *646:io_la_data_in[88] la_data_out[88] 0.00062464
6 *646:io_la_data_in[88] *646:io_la_oenb[90] 0
*RES
1 la_data_in[88] *646:io_la_data_in[88] 40.7717 
*END

*D_NET *259 0.0121926
*CONN
*P la_data_in[89] I
*I *646:io_la_data_in[89] I *D CaravelTopLevel
*CAP
1 la_data_in[89] 0.00187852
2 *646:io_la_data_in[89] 0.00187852
3 *646:io_la_data_in[89] la_data_out[86] 9.10923e-05
4 *646:io_la_data_in[89] la_data_out[89] 0.00426006
5 *646:io_la_data_in[89] *646:io_la_oenb[89] 0.00371907
6 *646:io_la_data_in[87] *646:io_la_data_in[89] 0.000365283
*RES
1 la_data_in[89] *646:io_la_data_in[89] 40.2482 
*END

*D_NET *260 0.00941323
*CONN
*P la_data_in[8] I
*I *646:io_la_data_in[8] I *D CaravelTopLevel
*CAP
1 la_data_in[8] 0.00253871
2 *646:io_la_data_in[8] 0.00253871
3 *646:io_la_data_in[8] la_data_out[5] 0.000106496
4 *646:io_la_data_in[8] la_data_out[6] 8.32381e-05
5 *646:io_la_data_in[8] la_data_out[7] 0
6 *646:io_la_data_in[8] la_data_out[9] 0.00211387
7 *646:io_la_data_in[8] *646:io_la_data_in[9] 0.000306344
8 *646:io_la_data_in[8] *388:11 0.000101159
9 *646:io_la_data_in[8] *505:17 0.00016681
10 *646:io_la_data_in[6] *646:io_la_data_in[8] 0.000613392
11 *646:io_la_data_in[7] *646:io_la_data_in[8] 0.000844513
*RES
1 la_data_in[8] *646:io_la_data_in[8] 42.8519 
*END

*D_NET *261 0.0120784
*CONN
*P la_data_in[90] I
*I *646:io_la_data_in[90] I *D CaravelTopLevel
*CAP
1 la_data_in[90] 0.00192518
2 *646:io_la_data_in[90] 0.00192518
3 *646:io_la_data_in[90] la_data_out[88] 0.00103929
4 *646:io_la_data_in[90] la_data_out[91] 0.0027048
5 *646:io_la_data_in[90] la_data_out[92] 0.000163258
6 *646:io_la_data_in[90] *646:io_la_oenb[89] 0.00432065
7 *646:io_la_data_in[90] *646:io_la_oenb[92] 0
8 *646:io_la_data_in[90] *389:9 0
*RES
1 la_data_in[90] *646:io_la_data_in[90] 41.2011 
*END

*D_NET *262 0.0100583
*CONN
*P la_data_in[91] I
*I *646:io_la_data_in[91] I *D CaravelTopLevel
*CAP
1 la_data_in[91] 0.00276076
2 *646:io_la_data_in[91] 0.00276076
3 *646:io_la_data_in[91] la_data_out[89] 0.000790603
4 *646:io_la_data_in[91] la_data_out[92] 0.00144065
5 *646:io_la_data_in[91] *646:io_la_data_in[92] 0.00046449
6 *646:io_la_data_in[91] *646:io_la_data_in[93] 0.00184101
*RES
1 la_data_in[91] *646:io_la_data_in[91] 39.8742 
*END

*D_NET *263 0.00981285
*CONN
*P la_data_in[92] I
*I *646:io_la_data_in[92] I *D CaravelTopLevel
*CAP
1 la_data_in[92] 0.00274379
2 *646:io_la_data_in[92] 0.00274379
3 *646:io_la_data_in[92] *646:io_la_data_in[93] 0.0015959
4 *646:io_la_data_in[92] *646:io_la_data_in[94] 0.001942
5 *646:io_la_data_in[92] *646:io_la_data_in[95] 0.000322875
6 *646:io_la_data_in[92] *394:9 0
7 *646:io_la_data_in[91] *646:io_la_data_in[92] 0.00046449
*RES
1 la_data_in[92] *646:io_la_data_in[92] 42.1588 
*END

*D_NET *264 0.012105
*CONN
*P la_data_in[93] I
*I *646:io_la_data_in[93] I *D CaravelTopLevel
*CAP
1 la_data_in[93] 0.00232445
2 *646:io_la_data_in[93] 0.00232445
3 *646:io_la_data_in[93] la_data_out[92] 8.29142e-05
4 *646:io_la_data_in[93] la_data_out[93] 0
5 *646:io_la_data_in[93] la_data_out[94] 0.00197919
6 *646:io_la_data_in[93] la_data_out[96] 2.12829e-05
7 *646:io_la_data_in[93] *646:io_la_data_in[95] 0.00193583
8 *646:io_la_data_in[93] *646:io_la_data_in[96] 0
9 *646:io_la_data_in[91] *646:io_la_data_in[93] 0.00184101
10 *646:io_la_data_in[92] *646:io_la_data_in[93] 0.0015959
*RES
1 la_data_in[93] *646:io_la_data_in[93] 42.3245 
*END

*D_NET *265 0.0125536
*CONN
*P la_data_in[94] I
*I *646:io_la_data_in[94] I *D CaravelTopLevel
*CAP
1 la_data_in[94] 0.00235011
2 *646:io_la_data_in[94] 0.00235011
3 *646:io_la_data_in[94] la_data_out[97] 0.000223849
4 *646:io_la_data_in[94] *646:io_la_data_in[95] 0.00158715
5 *646:io_la_data_in[94] *646:io_la_oenb[94] 0.00410033
6 *646:io_la_data_in[92] *646:io_la_data_in[94] 0.001942
*RES
1 la_data_in[94] *646:io_la_data_in[94] 45.6802 
*END

*D_NET *266 0.0125733
*CONN
*P la_data_in[95] I
*I *646:io_la_data_in[95] I *D CaravelTopLevel
*CAP
1 la_data_in[95] 0.00258271
2 *646:io_la_data_in[95] 0.00258271
3 *646:io_la_data_in[95] la_data_out[94] 5.4252e-05
4 *646:io_la_data_in[95] la_data_out[96] 0.000144466
5 *646:io_la_data_in[95] *646:io_la_oenb[94] 0.000472524
6 *646:io_la_data_in[95] *646:io_la_oenb[96] 0.00289076
7 *646:io_la_data_in[95] *646:io_la_oenb[98] 0
8 *646:io_la_data_in[92] *646:io_la_data_in[95] 0.000322875
9 *646:io_la_data_in[93] *646:io_la_data_in[95] 0.00193583
10 *646:io_la_data_in[94] *646:io_la_data_in[95] 0.00158715
*RES
1 la_data_in[95] *646:io_la_data_in[95] 42.8487 
*END

*D_NET *267 0.0127233
*CONN
*P la_data_in[96] I
*I *646:io_la_data_in[96] I *D CaravelTopLevel
*CAP
1 la_data_in[96] 0.0035226
2 *646:io_la_data_in[96] 0.0035226
3 *646:io_la_data_in[96] la_data_out[97] 0.00330389
4 *646:io_la_data_in[96] *268:11 0.000106043
5 *646:io_la_data_in[96] *394:11 0.00188649
6 *646:io_la_data_in[96] *525:15 0.000381727
7 *646:io_la_data_in[93] *646:io_la_data_in[96] 0
*RES
1 la_data_in[96] *646:io_la_data_in[96] 45.4599 
*END

*D_NET *268 0.0128342
*CONN
*P la_data_in[97] I
*I *646:io_la_data_in[97] I *D CaravelTopLevel
*CAP
1 la_data_in[97] 0.000129326
2 *646:io_la_data_in[97] 0.000682664
3 *268:11 0.002239
4 *268:9 0.00168566
5 *646:io_la_data_in[97] *520:7 0.000200631
6 *268:11 la_data_out[97] 0.000946888
7 *268:11 *394:11 0.000498031
8 *268:11 *522:13 0.00190177
9 *268:11 *522:15 0
10 *268:11 *524:11 0.00444423
11 *646:io_la_data_in[96] *268:11 0.000106043
*RES
1 la_data_in[97] *268:9 16.3464 
2 *268:9 *268:11 62.5571 
3 *268:11 *646:io_la_data_in[97] 30.3389 
*END

*D_NET *269 0.0113819
*CONN
*P la_data_in[98] I
*I *646:io_la_data_in[98] I *D CaravelTopLevel
*CAP
1 la_data_in[98] 0.00233212
2 *646:io_la_data_in[98] 0.00233212
3 *646:io_la_data_in[98] la_data_out[97] 0.000536151
4 *646:io_la_data_in[98] *646:io_la_data_in[99] 0.00431257
5 *646:io_la_data_in[98] *646:io_la_oenb[94] 0.000495174
6 *646:io_la_data_in[98] *646:io_la_oenb[97] 0
7 *646:io_la_data_in[100] *646:io_la_data_in[98] 0.00137377
*RES
1 la_data_in[98] *646:io_la_data_in[98] 41.9185 
*END

*D_NET *270 0.0146289
*CONN
*P la_data_in[99] I
*I *646:io_la_data_in[99] I *D CaravelTopLevel
*CAP
1 la_data_in[99] 0.00198962
2 *646:io_la_data_in[99] 0.00198962
3 *646:io_la_data_in[99] la_data_out[97] 0.000211637
4 *646:io_la_data_in[99] la_data_out[99] 0.0054909
5 *646:io_la_data_in[99] *646:io_la_oenb[102] 2.56825e-05
6 *646:io_la_data_in[100] *646:io_la_data_in[99] 0.000608873
7 *646:io_la_data_in[98] *646:io_la_data_in[99] 0.00431257
*RES
1 la_data_in[99] *646:io_la_data_in[99] 42.7855 
*END

*D_NET *271 0.00909055
*CONN
*P la_data_in[9] I
*I *646:io_la_data_in[9] I *D CaravelTopLevel
*CAP
1 la_data_in[9] 0.00225791
2 *646:io_la_data_in[9] 0.00225791
3 *646:io_la_data_in[9] la_data_out[10] 0
4 *646:io_la_data_in[9] la_data_out[6] 5.06049e-05
5 *646:io_la_data_in[9] la_data_out[7] 0.000443528
6 *646:io_la_data_in[9] la_data_out[9] 0.00377425
7 *646:io_la_data_in[9] *646:io_la_oenb[9] 0
8 *646:io_la_data_in[11] *646:io_la_data_in[9] 0
9 *646:io_la_data_in[8] *646:io_la_data_in[9] 0.000306344
*RES
1 la_data_in[9] *646:io_la_data_in[9] 40.0848 
*END

*D_NET *272 0.00956078
*CONN
*P la_data_out[0] O
*I *646:io_la_data_out[0] O *D CaravelTopLevel
*CAP
1 la_data_out[0] 0.00353281
2 *646:io_la_data_out[0] 0.00353281
3 la_data_out[0] la_data_out[2] 0.000306344
4 la_data_out[0] la_data_out[3] 0.000389588
5 la_data_out[0] wbs_dat_o[29] 0.000319807
6 la_data_out[0] *646:io_la_oenb[2] 0.00125809
7 la_data_out[0] *646:io_wbs_adr_i[30] 0
8 *646:io_la_data_in[0] la_data_out[0] 0
9 *646:io_la_data_in[2] la_data_out[0] 0.000221319
*RES
1 *646:io_la_data_out[0] la_data_out[0] 41.6692 
*END

*D_NET *273 0.00880495
*CONN
*P la_data_out[100] O
*I *646:io_la_data_out[100] O *D CaravelTopLevel
*CAP
1 la_data_out[100] 0.000510393
2 *646:io_la_data_out[100] 0.000419526
3 *273:11 0.00362735
4 *273:9 0.00353649
5 la_data_out[100] la_data_out[101] 0.000105765
6 la_data_out[100] *275:11 0.000285414
7 *273:9 *646:io_la_oenb[96] 0
8 *646:io_la_data_in[100] la_data_out[100] 0
9 *646:io_la_data_in[100] *273:11 0.000239278
10 *646:io_la_data_in[104] la_data_out[100] 8.07355e-05
*RES
1 *646:io_la_data_out[100] *273:9 24.4354 
2 *273:9 *273:11 62.5571 
3 *273:11 la_data_out[100] 24.1764 
*END

*D_NET *274 0.0173037
*CONN
*P la_data_out[101] O
*I *646:io_la_data_out[101] O *D CaravelTopLevel
*CAP
1 la_data_out[101] 0.00226823
2 *646:io_la_data_out[101] 0.00226823
3 la_data_out[101] *646:io_la_oenb[101] 0.00558568
4 la_data_out[101] *275:11 0.000115009
5 la_data_out[101] *403:11 0.000600527
6 la_data_out[101] *404:13 0.000130115
7 la_data_out[101] *525:15 0.000118429
8 la_data_out[101] *526:11 0.00020516
9 la_data_out[100] la_data_out[101] 0.000105765
10 *646:io_la_data_in[101] la_data_out[101] 0.0057985
11 *646:io_la_data_in[104] la_data_out[101] 0.000108069
*RES
1 *646:io_la_data_out[101] la_data_out[101] 45.9577 
*END

*D_NET *275 0.0161209
*CONN
*P la_data_out[102] O
*I *646:io_la_data_out[102] O *D CaravelTopLevel
*CAP
1 la_data_out[102] 0.000153653
2 *646:io_la_data_out[102] 0.000787498
3 *275:11 0.00138385
4 *275:9 0.00201769
5 *275:9 *525:13 2.56825e-05
6 *275:11 *646:io_la_oenb[101] 0.00122172
7 *275:11 *277:11 0.00302627
8 *275:11 *401:9 0
9 *275:11 *403:11 0.00559762
10 *275:11 *526:11 0.00140271
11 la_data_out[100] *275:11 0.000285414
12 la_data_out[101] *275:11 0.000115009
13 *646:io_la_data_in[105] *275:11 0.000103785
*RES
1 *646:io_la_data_out[102] *275:9 31.3746 
2 *275:9 *275:11 67.3214 
3 *275:11 la_data_out[102] 16.3464 
*END

*D_NET *276 0.0154752
*CONN
*P la_data_out[103] O
*I *646:io_la_data_out[103] O *D CaravelTopLevel
*CAP
1 la_data_out[103] 0.00261442
2 *646:io_la_data_out[103] 0.00261442
3 la_data_out[103] la_data_out[105] 0.00338248
4 la_data_out[103] *646:io_la_oenb[103] 0
5 la_data_out[103] *280:9 5.95631e-05
6 *646:io_la_data_in[100] la_data_out[103] 0.000591131
7 *646:io_la_data_in[103] la_data_out[103] 0.00588101
8 *646:io_la_data_in[104] la_data_out[103] 0.000332213
*RES
1 *646:io_la_data_out[103] la_data_out[103] 44.1205 
*END

*D_NET *277 0.0130897
*CONN
*P la_data_out[104] O
*I *646:io_la_data_out[104] O *D CaravelTopLevel
*CAP
1 la_data_out[104] 0.000195308
2 *646:io_la_data_out[104] 0.000822375
3 *277:11 0.00243655
4 *277:9 0.00306362
5 *277:9 *401:7 4.69729e-05
6 *277:11 la_data_out[106] 0.00010258
7 *277:11 *646:io_la_oenb[101] 0.0008579
8 *277:11 *646:io_la_oenb[106] 0.00108169
9 *277:11 *280:11 0.000321803
10 *277:11 *403:11 0.000297027
11 *277:11 *404:11 0
12 *277:11 *408:11 0.000837546
13 *275:11 *277:11 0.00302627
*RES
1 *646:io_la_data_out[104] *277:9 31.7268 
2 *277:9 *277:11 66.845 
3 *277:11 la_data_out[104] 17.2993 
*END

*D_NET *278 0.0144157
*CONN
*P la_data_out[105] O
*I *646:io_la_data_out[105] O *D CaravelTopLevel
*CAP
1 la_data_out[105] 0.00402683
2 *646:io_la_data_out[105] 0.00402683
3 la_data_out[105] la_data_out[108] 0
4 la_data_out[105] la_data_out[109] 0
5 la_data_out[105] *405:15 0.000212411
6 la_data_out[105] *406:13 0.00126921
7 la_data_out[103] la_data_out[105] 0.00338248
8 *646:io_la_data_in[104] la_data_out[105] 0.000442639
9 *646:io_la_data_in[105] la_data_out[105] 0.000492113
10 *646:io_la_data_in[106] la_data_out[105] 9.99761e-05
11 *646:io_la_data_in[108] la_data_out[105] 0
12 *152:13 la_data_out[105] 0.000463214
*RES
1 *646:io_la_data_out[105] la_data_out[105] 43.4641 
*END

*D_NET *279 0.0186618
*CONN
*P la_data_out[106] O
*I *646:io_la_data_out[106] O *D CaravelTopLevel
*CAP
1 la_data_out[106] 0.00248415
2 *646:io_la_data_out[106] 0.00248415
3 la_data_out[106] *646:io_la_oenb[106] 0.00650981
4 la_data_out[106] *280:11 0.00100986
5 *646:io_la_data_in[106] la_data_out[106] 0.00607126
6 *277:11 la_data_out[106] 0.00010258
*RES
1 *646:io_la_data_out[106] la_data_out[106] 46.6364 
*END

*D_NET *280 0.0138772
*CONN
*P la_data_out[107] O
*I *646:io_la_data_out[107] O *D CaravelTopLevel
*CAP
1 la_data_out[107] 0.000152949
2 *646:io_la_data_out[107] 0.000767406
3 *280:11 0.00232104
4 *280:9 0.0029355
5 *280:11 *404:11 5.15993e-05
6 *280:11 *408:11 0.00611192
7 la_data_out[103] *280:9 5.95631e-05
8 la_data_out[106] *280:11 0.00100986
9 *646:io_la_data_in[111] *280:11 0.000145518
10 *277:11 *280:11 0.000321803
*RES
1 *646:io_la_data_out[107] *280:9 31.0225 
2 *280:9 *280:11 73.0386 
3 *280:11 la_data_out[107] 16.3464 
*END

*D_NET *281 0.0170086
*CONN
*P la_data_out[108] O
*I *646:io_la_data_out[108] O *D CaravelTopLevel
*CAP
1 la_data_out[108] 0.00240194
2 *646:io_la_data_out[108] 0.00240194
3 la_data_out[108] la_data_out[109] 0.0054613
4 la_data_out[108] la_data_out[112] 9.03958e-05
5 la_data_out[108] *646:io_la_oenb[108] 0
6 la_data_out[108] *646:io_la_oenb[112] 0.000111605
7 la_data_out[105] la_data_out[108] 0
8 *646:io_la_data_in[108] la_data_out[108] 0.00654146
*RES
1 *646:io_la_data_out[108] la_data_out[108] 45.2368 
*END

*D_NET *282 0.0130814
*CONN
*P la_data_out[109] O
*I *646:io_la_data_out[109] O *D CaravelTopLevel
*CAP
1 la_data_out[109] 0.00376869
2 *646:io_la_data_out[109] 0.00376869
3 la_data_out[109] la_data_out[112] 0
4 la_data_out[109] *646:io_la_oenb[113] 8.27008e-05
5 la_data_out[105] la_data_out[109] 0
6 la_data_out[108] la_data_out[109] 0.0054613
*RES
1 *646:io_la_data_out[109] la_data_out[109] 45.4085 
*END

*D_NET *283 0.00881927
*CONN
*P la_data_out[10] O
*I *646:io_la_data_out[10] O *D CaravelTopLevel
*CAP
1 la_data_out[10] 0.00198717
2 *646:io_la_data_out[10] 0.00198717
3 la_data_out[10] la_data_out[12] 0.000642667
4 la_data_out[10] *646:io_la_oenb[9] 0.00108429
5 *646:io_la_data_in[11] la_data_out[10] 0.00299243
6 *646:io_la_data_in[12] la_data_out[10] 0.000125537
7 *646:io_la_data_in[9] la_data_out[10] 0
*RES
1 *646:io_la_data_out[10] la_data_out[10] 39.8272 
*END

*D_NET *284 0.013713
*CONN
*P la_data_out[110] O
*I *646:io_la_data_out[110] O *D CaravelTopLevel
*CAP
1 la_data_out[110] 0.00378823
2 *646:io_la_data_out[110] 0.00378823
3 la_data_out[110] la_data_out[111] 0.00566581
4 la_data_out[110] *646:io_la_oenb[114] 0
5 *646:io_la_data_in[110] la_data_out[110] 0.000470739
*RES
1 *646:io_la_data_out[110] la_data_out[110] 46.1945 
*END

*D_NET *285 0.0185488
*CONN
*P la_data_out[111] O
*I *646:io_la_data_out[111] O *D CaravelTopLevel
*CAP
1 la_data_out[111] 0.00267335
2 *646:io_la_data_out[111] 0.00267335
3 la_data_out[111] *646:io_la_oenb[115] 0
4 la_data_out[110] la_data_out[111] 0.00566581
5 *646:io_la_data_in[110] la_data_out[111] 0.00130126
6 *646:io_la_data_in[113] la_data_out[111] 0.00473474
7 *646:io_la_data_in[115] la_data_out[111] 0.0015003
8 *646:io_la_data_in[116] la_data_out[111] 0
*RES
1 *646:io_la_data_out[111] la_data_out[111] 45.7479 
*END

*D_NET *286 0.0141682
*CONN
*P la_data_out[112] O
*I *646:io_la_data_out[112] O *D CaravelTopLevel
*CAP
1 la_data_out[112] 0.00340824
2 *646:io_la_data_out[112] 0.00340824
3 la_data_out[112] *646:io_la_oenb[114] 0.00370909
4 la_data_out[112] *646:io_la_oenb[116] 0
5 la_data_out[108] la_data_out[112] 9.03958e-05
6 la_data_out[109] la_data_out[112] 0
7 *646:io_la_data_in[108] la_data_out[112] 1.49333e-06
8 *646:io_la_data_in[110] la_data_out[112] 0.00168985
9 *646:io_la_data_in[113] la_data_out[112] 8.99424e-05
10 *646:io_la_data_in[114] la_data_out[112] 0.00170699
11 *646:io_la_data_in[117] la_data_out[112] 6.3933e-05
*RES
1 *646:io_la_data_out[112] la_data_out[112] 44.5835 
*END

*D_NET *287 0.0136222
*CONN
*P la_data_out[113] O
*I *646:io_la_data_out[113] O *D CaravelTopLevel
*CAP
1 la_data_out[113] 0.000349957
2 *646:io_la_data_out[113] 0.000506609
3 *287:11 0.00284035
4 *287:9 0.002997
5 la_data_out[113] *415:9 0
6 *287:9 *646:io_la_oenb[113] 0
7 *287:11 *414:13 0.000138889
8 *287:11 *415:11 0.00678936
*RES
1 *646:io_la_data_out[113] *287:9 25.8646 
2 *287:9 *287:11 78.2793 
3 *287:11 la_data_out[113] 21.4214 
*END

*D_NET *288 0.018421
*CONN
*P la_data_out[114] O
*I *646:io_la_data_out[114] O *D CaravelTopLevel
*CAP
1 la_data_out[114] 0.000243566
2 *646:io_la_data_out[114] 0.000395713
3 *288:11 0.00146106
4 *288:9 0.00161321
5 *288:11 *289:11 8.99384e-05
6 *288:11 *291:11 0.00265287
7 *288:11 *414:13 0.00449513
8 *288:11 *415:11 0.00600942
9 *288:11 *420:11 0.00070452
10 *646:io_la_data_in[110] *288:9 0.000755587
*RES
1 *646:io_la_data_out[114] *288:9 26.5689 
2 *288:9 *288:11 80.185 
3 *288:11 la_data_out[114] 19.4743 
*END

*D_NET *289 0.0173884
*CONN
*P la_data_out[115] O
*I *646:io_la_data_out[115] O *D CaravelTopLevel
*CAP
1 la_data_out[115] 0.000362401
2 *646:io_la_data_out[115] 0.000554808
3 *289:11 0.00186468
4 *289:9 0.00205709
5 *289:11 *291:11 0.00413255
6 *289:11 *413:11 0.00118684
7 *289:11 *414:13 0.00310336
8 *289:11 *419:13 0.0035709
9 *646:io_la_data_in[115] la_data_out[115] 0
10 *158:9 *289:11 0.000465806
11 *288:11 *289:11 8.99384e-05
*RES
1 *646:io_la_data_out[115] *289:9 25.8439 
2 *289:9 *289:11 81.1379 
3 *289:11 la_data_out[115] 21.2971 
*END

*D_NET *290 0.0188574
*CONN
*P la_data_out[116] O
*I *646:io_la_data_out[116] O *D CaravelTopLevel
*CAP
1 la_data_out[116] 0.0028592
2 *646:io_la_data_out[116] 0.0028592
3 *646:io_la_data_in[116] la_data_out[116] 0.0074224
4 *646:io_la_data_in[118] la_data_out[116] 0.00526319
5 *646:io_la_data_in[120] la_data_out[116] 0.000189382
6 *646:io_la_data_in[121] la_data_out[116] 0.000264032
*RES
1 *646:io_la_data_out[116] la_data_out[116] 46.9541 
*END

*D_NET *291 0.0170781
*CONN
*P la_data_out[117] O
*I *646:io_la_data_out[117] O *D CaravelTopLevel
*CAP
1 la_data_out[117] 0.000296013
2 *646:io_la_data_out[117] 0.000589684
3 *291:11 0.00155073
4 *291:9 0.0018444
5 *291:11 *295:11 0.00300346
6 *291:11 *419:13 0.00193774
7 *291:11 *420:11 0.00107068
8 *646:io_la_data_in[113] *291:9 0
9 *646:io_la_data_in[117] la_data_out[117] 0
10 *288:11 *291:11 0.00265287
11 *289:11 *291:11 0.00413255
*RES
1 *646:io_la_data_out[117] *291:9 26.4446 
2 *291:9 *291:11 83.0436 
3 *291:11 la_data_out[117] 20.8414 
*END

*D_NET *292 0.0140886
*CONN
*P la_data_out[118] O
*I *646:io_la_data_out[118] O *D CaravelTopLevel
*CAP
1 la_data_out[118] 0.000153129
2 *646:io_la_data_out[118] 0.000678093
3 *292:11 0.00284376
4 *292:9 0.00336873
5 *292:9 *646:io_la_oenb[118] 0
6 *292:11 *295:11 0.000327539
7 *292:11 *419:13 0.00660891
8 *292:11 *425:9 0.000108481
*RES
1 *646:io_la_data_out[118] *292:9 27.9775 
2 *292:9 *292:11 84.9493 
3 *292:11 la_data_out[118] 18.0657 
*END

*D_NET *293 0.0160456
*CONN
*P la_data_out[119] O
*I *646:io_la_data_out[119] O *D CaravelTopLevel
*CAP
1 la_data_out[119] 0.00372342
2 *646:io_la_data_out[119] 0.00372342
3 la_data_out[119] la_data_out[121] 0.000327871
4 la_data_out[119] la_data_out[123] 0.0017364
5 la_data_out[119] *646:io_la_oenb[114] 0.000427482
6 *646:io_la_data_in[118] la_data_out[119] 0.00610704
*RES
1 *646:io_la_data_out[119] la_data_out[119] 47.6411 
*END

*D_NET *294 0.00893079
*CONN
*P la_data_out[11] O
*I *646:io_la_data_out[11] O *D CaravelTopLevel
*CAP
1 la_data_out[11] 0.00181816
2 *646:io_la_data_out[11] 0.00181816
3 la_data_out[11] la_data_out[13] 0
4 la_data_out[11] *646:io_la_oenb[10] 0.00148239
5 la_data_out[11] *646:io_la_oenb[11] 0.000347653
6 la_data_out[11] *646:io_la_oenb[13] 0.000124484
7 la_data_out[11] *646:io_la_oenb[9] 0.000468802
8 *646:io_la_data_in[12] la_data_out[11] 0.00287115
*RES
1 *646:io_la_data_out[11] la_data_out[11] 42.203 
*END

*D_NET *295 0.0161011
*CONN
*P la_data_out[120] O
*I *646:io_la_data_out[120] O *D CaravelTopLevel
*CAP
1 la_data_out[120] 0.000213207
2 *646:io_la_data_out[120] 0.000543541
3 *295:11 0.00229585
4 *295:9 0.00262619
5 la_data_out[120] *646:io_la_oenb[125] 0
6 la_data_out[120] *300:9 0
7 *295:11 *419:13 0.000247153
8 *295:11 *420:11 0.0051431
9 *295:11 *423:13 0.00170101
10 *295:11 *425:9 0
11 *646:io_la_data_in[120] *295:9 0
12 *291:11 *295:11 0.00300346
13 *292:11 *295:11 0.000327539
*RES
1 *646:io_la_data_out[120] *295:9 25.1396 
2 *295:9 *295:11 89.7136 
3 *295:11 la_data_out[120] 19.4743 
*END

*D_NET *296 0.0215516
*CONN
*P la_data_out[121] O
*I *646:io_la_data_out[121] O *D CaravelTopLevel
*CAP
1 la_data_out[121] 0.00249659
2 *646:io_la_data_out[121] 0.00249659
3 la_data_out[121] la_data_out[123] 0.00527135
4 la_data_out[121] la_data_out[124] 0.000221319
5 la_data_out[121] *301:11 0
6 la_data_out[121] *424:11 0
7 la_data_out[119] la_data_out[121] 0.000327871
8 *646:io_la_data_in[118] la_data_out[121] 0.00272828
9 *646:io_la_data_in[121] la_data_out[121] 0.00800957
*RES
1 *646:io_la_data_out[121] la_data_out[121] 48.0704 
*END

*D_NET *297 0.0215212
*CONN
*P la_data_out[122] O
*I *646:io_la_data_out[122] O *D CaravelTopLevel
*CAP
1 la_data_out[122] 0.000338774
2 *646:io_la_data_out[122] 0.00266589
3 *297:14 0.00300467
4 la_data_out[122] *302:9 0
5 *297:14 *646:io_la_oenb[127] 0
6 *297:14 *302:9 0
7 *297:14 *424:11 0.00733235
8 *646:io_la_data_in[122] *297:14 0.00796113
9 *646:io_la_data_in[125] *297:14 0.000218377
*RES
1 *646:io_la_data_out[122] *297:14 43.8151 
2 *297:14 la_data_out[122] 7.11536 
*END

*D_NET *298 0.0183651
*CONN
*P la_data_out[123] O
*I *646:io_la_data_out[123] O *D CaravelTopLevel
*CAP
1 la_data_out[123] 0.00406874
2 *646:io_la_data_out[123] 0.00406874
3 la_data_out[123] la_data_out[124] 6.7054e-05
4 la_data_out[123] *646:io_la_oenb[123] 0
5 la_data_out[123] *646:io_la_oenb[126] 0.000100694
6 la_data_out[123] *530:9 0.000108172
7 la_data_out[119] la_data_out[123] 0.0017364
8 la_data_out[121] la_data_out[123] 0.00527135
9 *646:io_la_data_in[127] la_data_out[123] 0.00294393
*RES
1 *646:io_la_data_out[123] la_data_out[123] 48.4997 
*END

*D_NET *299 0.0211503
*CONN
*P la_data_out[124] O
*I *646:io_la_data_out[124] O *D CaravelTopLevel
*CAP
1 la_data_out[124] 0.00295418
2 *646:io_la_data_out[124] 0.00295418
3 la_data_out[124] *646:io_la_oenb[124] 0.000221319
4 la_data_out[124] *646:io_la_oenb[126] 0.00506871
5 la_data_out[121] la_data_out[124] 0.000221319
6 la_data_out[123] la_data_out[124] 6.7054e-05
7 *646:io_la_data_in[120] la_data_out[124] 0.00125636
8 *646:io_la_data_in[121] la_data_out[124] 0.000924638
9 *646:io_la_data_in[123] la_data_out[124] 0.00654259
10 *646:io_la_data_in[124] la_data_out[124] 0.000939967
*RES
1 *646:io_la_data_out[124] la_data_out[124] 48.7573 
*END

*D_NET *300 0.0207237
*CONN
*P la_data_out[125] O
*I *646:io_la_data_out[125] O *D CaravelTopLevel
*CAP
1 la_data_out[125] 0.000120926
2 *646:io_la_data_out[125] 0.000812018
3 *300:11 0.00203033
4 *300:9 0.00272142
5 *300:11 *301:11 0.00139676
6 *300:11 *426:11 0.00603614
7 la_data_out[120] *300:9 0
8 *646:io_la_data_in[120] *300:9 0
9 *173:11 *300:11 0.00760607
*RES
1 *646:io_la_data_out[125] *300:9 30.4218 
2 *300:9 *300:11 96.3836 
3 *300:11 la_data_out[125] 16.3464 
*END

*D_NET *301 0.0184258
*CONN
*P la_data_out[126] O
*I *646:io_la_data_out[126] O *D CaravelTopLevel
*CAP
1 la_data_out[126] 8.66535e-05
2 *646:io_la_data_out[126] 0.00618337
3 *301:11 0.00627003
4 *301:11 *426:11 0.000742978
5 la_data_out[121] *301:11 0
6 *646:io_la_data_in[121] *301:11 0
7 *173:11 *301:11 0.00374597
8 *300:11 *301:11 0.00139676
*RES
1 *646:io_la_data_out[126] *301:11 42.1793 
2 *301:11 la_data_out[126] 9.97821 
*END

*D_NET *302 0.0174262
*CONN
*P la_data_out[127] O
*I *646:io_la_data_out[127] O *D CaravelTopLevel
*CAP
1 la_data_out[127] 0.00062507
2 *646:io_la_data_out[127] 0.000588149
3 *302:21 0.00189024
4 *302:17 0.0017459
5 *302:11 0.00219313
6 *302:9 0.00230055
7 *302:11 *428:17 0.00332243
8 *302:11 *528:11 0.000490624
9 *302:11 *530:11 0.0042701
10 *302:17 *428:7 0
11 la_data_out[122] *302:9 0
12 *646:io_la_data_in[122] *302:9 0
13 *297:14 *302:9 0
*RES
1 *646:io_la_data_out[127] *302:9 26.4446 
2 *302:9 *302:11 68.2743 
3 *302:11 *302:17 38.9486 
4 *302:17 *302:21 43.2543 
5 *302:21 la_data_out[127] 12.9257 
*END

*D_NET *303 0.00950546
*CONN
*P la_data_out[12] O
*I *646:io_la_data_out[12] O *D CaravelTopLevel
*CAP
1 la_data_out[12] 0.00168836
2 *646:io_la_data_out[12] 0.00168836
3 la_data_out[12] *646:io_la_oenb[12] 0.000315475
4 la_data_out[12] *646:io_la_oenb[13] 0.00162049
5 la_data_out[10] la_data_out[12] 0.000642667
6 *646:io_la_data_in[11] la_data_out[12] 0.000564199
7 *646:io_la_data_in[12] la_data_out[12] 0.000225296
8 *646:io_la_data_in[13] la_data_out[12] 0.00276062
*RES
1 *646:io_la_data_out[12] la_data_out[12] 39.3979 
*END

*D_NET *304 0.00612113
*CONN
*P la_data_out[13] O
*I *646:io_la_data_out[13] O *D CaravelTopLevel
*CAP
1 la_data_out[13] 0.0028836
2 *646:io_la_data_out[13] 0.0028836
3 la_data_out[13] *646:io_la_oenb[13] 0
4 la_data_out[11] la_data_out[13] 0
5 *646:io_la_data_in[11] la_data_out[13] 0.000353936
*RES
1 *646:io_la_data_out[13] la_data_out[13] 37.6283 
*END

*D_NET *305 0.00752931
*CONN
*P la_data_out[14] O
*I *646:io_la_data_out[14] O *D CaravelTopLevel
*CAP
1 la_data_out[14] 0.00223605
2 *646:io_la_data_out[14] 0.00223605
3 la_data_out[14] la_data_out[16] 0
4 la_data_out[14] *646:io_la_oenb[12] 0.000325673
5 la_data_out[14] *646:io_la_oenb[16] 0
6 *646:io_la_data_in[13] la_data_out[14] 4.56678e-05
7 *646:io_la_data_in[15] la_data_out[14] 0.00268588
*RES
1 *646:io_la_data_out[14] la_data_out[14] 42.4663 
*END

*D_NET *306 0.00708627
*CONN
*P la_data_out[15] O
*I *646:io_la_data_out[15] O *D CaravelTopLevel
*CAP
1 la_data_out[15] 0.00173185
2 *646:io_la_data_out[15] 0.00173185
3 la_data_out[15] la_data_out[16] 0.000181805
4 la_data_out[15] la_data_out[17] 0.000136486
5 la_data_out[15] *646:io_la_oenb[14] 0.00132197
6 *646:io_la_data_in[15] la_data_out[15] 0.00165418
7 *646:io_la_data_in[17] la_data_out[15] 0.000328121
*RES
1 *646:io_la_data_out[15] la_data_out[15] 38.3204 
*END

*D_NET *307 0.00921536
*CONN
*P la_data_out[16] O
*I *646:io_la_data_out[16] O *D CaravelTopLevel
*CAP
1 la_data_out[16] 0.00138386
2 *646:io_la_data_out[16] 0.00138386
3 la_data_out[16] *646:io_la_oenb[14] 0.000725451
4 la_data_out[16] *646:io_la_oenb[15] 0.000328121
5 la_data_out[16] *646:io_la_oenb[16] 0.00290992
6 la_data_out[14] la_data_out[16] 0
7 la_data_out[15] la_data_out[16] 0.000181805
8 *646:io_la_data_in[17] la_data_out[16] 0.00230233
*RES
1 *646:io_la_data_out[16] la_data_out[16] 38.5392 
*END

*D_NET *308 0.00835163
*CONN
*P la_data_out[17] O
*I *646:io_la_data_out[17] O *D CaravelTopLevel
*CAP
1 la_data_out[17] 0.00170756
2 *646:io_la_data_out[17] 0.00170756
3 la_data_out[17] la_data_out[18] 0.00158384
4 la_data_out[17] la_data_out[19] 0
5 la_data_out[17] *646:io_la_oenb[17] 6.01326e-05
6 la_data_out[17] *646:io_la_oenb[18] 0.000114077
7 la_data_out[15] la_data_out[17] 0.000136486
8 *646:io_la_data_in[17] la_data_out[17] 0.00281924
9 *646:io_la_data_in[18] la_data_out[17] 0.000222735
10 *646:io_la_data_in[19] la_data_out[17] 0
*RES
1 *646:io_la_data_out[17] la_data_out[17] 38.2816 
*END

*D_NET *309 0.0072959
*CONN
*P la_data_out[18] O
*I *646:io_la_data_out[18] O *D CaravelTopLevel
*CAP
1 la_data_out[18] 0.00185118
2 *646:io_la_data_out[18] 0.00185118
3 la_data_out[18] la_data_out[19] 0.000507158
4 la_data_out[18] la_data_out[20] 0
5 la_data_out[18] *646:io_la_oenb[18] 3.9211e-05
6 la_data_out[17] la_data_out[18] 0.00158384
7 *646:io_la_data_in[18] la_data_out[18] 0.00144089
8 *646:io_la_data_in[20] la_data_out[18] 2.2447e-05
*RES
1 *646:io_la_data_out[18] la_data_out[18] 37.7193 
*END

*D_NET *310 0.00692798
*CONN
*P la_data_out[19] O
*I *646:io_la_data_out[19] O *D CaravelTopLevel
*CAP
1 la_data_out[19] 0.00174364
2 *646:io_la_data_out[19] 0.00174364
3 la_data_out[19] la_data_out[21] 0
4 la_data_out[19] *646:io_la_oenb[17] 0
5 la_data_out[19] *646:io_la_oenb[18] 0.000328121
6 la_data_out[19] *646:io_la_oenb[19] 0.00251443
7 la_data_out[17] la_data_out[19] 0
8 la_data_out[18] la_data_out[19] 0.000507158
9 *646:io_la_data_in[20] la_data_out[19] 0
10 *646:io_la_data_in[21] la_data_out[19] 9.09854e-05
*RES
1 *646:io_la_data_out[19] la_data_out[19] 37.8523 
*END

*D_NET *311 0.0108937
*CONN
*P la_data_out[1] O
*I *646:io_la_data_out[1] O *D CaravelTopLevel
*CAP
1 la_data_out[1] 0.00059399
2 *646:io_la_data_out[1] 8.22111e-05
3 *311:9 0.0023101
4 *311:7 0.00179833
5 la_data_out[1] *646:io_wbs_adr_i[30] 0
6 *311:9 *333:11 0.00059484
7 *311:9 *400:9 0.004114
8 *646:io_la_data_in[0] *311:9 0.00122183
9 *646:io_la_data_in[1] *311:9 0.000178384
*RES
1 *646:io_la_data_out[1] *311:7 16.305 
2 *311:7 *311:9 55.6489 
3 *311:9 la_data_out[1] 27.9257 
*END

*D_NET *312 0.00530731
*CONN
*P la_data_out[20] O
*I *646:io_la_data_out[20] O *D CaravelTopLevel
*CAP
1 la_data_out[20] 0.00187771
2 *646:io_la_data_out[20] 0.00187771
3 la_data_out[20] *646:io_la_oenb[18] 0
4 la_data_out[20] *646:io_la_oenb[20] 0.00133825
5 la_data_out[18] la_data_out[20] 0
6 *646:io_la_data_in[19] la_data_out[20] 0.000112993
7 *646:io_la_data_in[22] la_data_out[20] 0.000100643
*RES
1 *646:io_la_data_out[20] la_data_out[20] 37.6805 
*END

*D_NET *313 0.0069958
*CONN
*P la_data_out[21] O
*I *646:io_la_data_out[21] O *D CaravelTopLevel
*CAP
1 la_data_out[21] 0.00145667
2 *646:io_la_data_out[21] 0.00145667
3 la_data_out[21] la_data_out[22] 0.00111595
4 la_data_out[21] *646:io_la_oenb[19] 0.000127181
5 la_data_out[21] *646:io_la_oenb[21] 0.000403074
6 la_data_out[19] la_data_out[21] 0
7 *646:io_la_data_in[21] la_data_out[21] 0.00234546
8 *646:io_la_data_in[22] la_data_out[21] 0
9 *646:io_la_data_in[23] la_data_out[21] 9.08028e-05
*RES
1 *646:io_la_data_out[21] la_data_out[21] 37.4229 
*END

*D_NET *314 0.00685629
*CONN
*P la_data_out[22] O
*I *646:io_la_data_out[22] O *D CaravelTopLevel
*CAP
1 la_data_out[22] 0.00140573
2 *646:io_la_data_out[22] 0.00140573
3 la_data_out[22] *646:io_la_oenb[21] 0.000306344
4 la_data_out[22] *646:io_la_oenb[22] 0.00219975
5 la_data_out[22] *646:io_la_oenb[23] 0
6 la_data_out[21] la_data_out[22] 0.00111595
7 *646:io_la_data_in[22] la_data_out[22] 0
8 *646:io_la_data_in[23] la_data_out[22] 0.000422785
*RES
1 *646:io_la_data_out[22] la_data_out[22] 37.1653 
*END

*D_NET *315 0.00603775
*CONN
*P la_data_out[23] O
*I *646:io_la_data_out[23] O *D CaravelTopLevel
*CAP
1 la_data_out[23] 0.00144955
2 *646:io_la_data_out[23] 0.00144955
3 la_data_out[23] *646:io_la_oenb[21] 0.000208497
4 la_data_out[23] *646:io_la_oenb[23] 0.00214458
5 *646:io_la_data_in[22] la_data_out[23] 0.000453354
6 *646:io_la_data_in[23] la_data_out[23] 0.000332213
*RES
1 *646:io_la_data_out[23] la_data_out[23] 36.6031 
*END

*D_NET *316 0.00572
*CONN
*P la_data_out[24] O
*I *646:io_la_data_out[24] O *D CaravelTopLevel
*CAP
1 la_data_out[24] 0.0012994
2 *646:io_la_data_out[24] 0.0012994
3 la_data_out[24] *646:io_la_oenb[22] 0
4 la_data_out[24] *646:io_la_oenb[23] 0.000620873
5 la_data_out[24] *646:io_la_oenb[24] 0.00196366
6 *646:io_la_data_in[23] la_data_out[24] 0.000311369
7 *646:io_la_data_in[24] la_data_out[24] 0.000225296
*RES
1 *646:io_la_data_out[24] la_data_out[24] 36.736 
*END

*D_NET *317 0.00572604
*CONN
*P la_data_out[25] O
*I *646:io_la_data_out[25] O *D CaravelTopLevel
*CAP
1 la_data_out[25] 0.00164397
2 *646:io_la_data_out[25] 0.00164397
3 la_data_out[25] *646:io_la_oenb[25] 0.00181628
4 la_data_out[25] *646:io_la_oenb[26] 0.000189854
5 *646:io_la_data_in[24] la_data_out[25] 0.000216713
6 *646:io_la_data_in[25] la_data_out[25] 0.000215242
7 *646:io_la_data_in[27] la_data_out[25] 0
*RES
1 *646:io_la_data_out[25] la_data_out[25] 36.5643 
*END

*D_NET *318 0.00631744
*CONN
*P la_data_out[26] O
*I *646:io_la_data_out[26] O *D CaravelTopLevel
*CAP
1 la_data_out[26] 0.00139989
2 *646:io_la_data_out[26] 0.00139989
3 la_data_out[26] la_data_out[27] 0.000298059
4 la_data_out[26] *646:io_la_oenb[26] 0.000296224
5 *646:io_la_data_in[25] la_data_out[26] 5.00306e-05
6 *646:io_la_data_in[26] la_data_out[26] 0.00171023
7 *646:io_la_data_in[27] la_data_out[26] 0.00116313
*RES
1 *646:io_la_data_out[26] la_data_out[26] 36.3067 
*END

*D_NET *319 0.00506954
*CONN
*P la_data_out[27] O
*I *646:io_la_data_out[27] O *D CaravelTopLevel
*CAP
1 la_data_out[27] 0.00139547
2 *646:io_la_data_out[27] 0.00139547
3 la_data_out[27] *646:io_la_oenb[27] 0.0016008
4 la_data_out[26] la_data_out[27] 0.000298059
5 *646:io_la_data_in[27] la_data_out[27] 0.000379732
*RES
1 *646:io_la_data_out[27] la_data_out[27] 36.1349 
*END

*D_NET *320 0.00583701
*CONN
*P la_data_out[28] O
*I *646:io_la_data_out[28] O *D CaravelTopLevel
*CAP
1 la_data_out[28] 0.00129939
2 *646:io_la_data_out[28] 0.00129939
3 la_data_out[28] la_data_out[29] 0.000358698
4 la_data_out[28] *646:io_la_oenb[27] 0.000969767
5 la_data_out[28] *646:io_la_oenb[28] 0.000397845
6 *646:io_la_data_in[28] la_data_out[28] 0.00151193
*RES
1 *646:io_la_data_out[28] la_data_out[28] 35.4868 
*END

*D_NET *321 0.00522801
*CONN
*P la_data_out[29] O
*I *646:io_la_data_out[29] O *D CaravelTopLevel
*CAP
1 la_data_out[29] 0.001285
2 *646:io_la_data_out[29] 0.001285
3 la_data_out[29] la_data_out[30] 0.000185534
4 la_data_out[29] *646:io_la_oenb[28] 0.00087511
5 la_data_out[29] *646:io_la_oenb[29] 0.000332213
6 la_data_out[28] la_data_out[29] 0.000358698
7 *646:io_la_data_in[28] la_data_out[29] 0
8 *646:io_la_data_in[29] la_data_out[29] 0.000161759
9 *646:io_la_data_in[30] la_data_out[29] 0.000744696
*RES
1 *646:io_la_data_out[29] la_data_out[29] 35.7056 
*END

*D_NET *322 0.0133155
*CONN
*P la_data_out[2] O
*I *646:io_la_data_out[2] O *D CaravelTopLevel
*CAP
1 la_data_out[2] 0.00165319
2 *646:io_la_data_out[2] 0.00165319
3 la_data_out[2] *646:io_la_oenb[2] 0.00460509
4 la_data_out[2] *646:io_la_oenb[3] 8.58939e-05
5 la_data_out[2] *646:io_wbs_adr_i[31] 0
6 la_data_out[0] la_data_out[2] 0.000306344
7 *646:io_la_data_in[2] la_data_out[2] 0.00460928
8 *646:io_la_data_in[5] la_data_out[2] 0.00040255
*RES
1 *646:io_la_data_out[2] la_data_out[2] 41.5445 
*END

*D_NET *323 0.00463073
*CONN
*P la_data_out[30] O
*I *646:io_la_data_out[30] O *D CaravelTopLevel
*CAP
1 la_data_out[30] 0.001497
2 *646:io_la_data_out[30] 0.001497
3 la_data_out[30] *646:io_la_oenb[30] 0.00121008
4 la_data_out[29] la_data_out[30] 0.000185534
5 *646:io_la_data_in[30] la_data_out[30] 0.000241112
*RES
1 *646:io_la_data_out[30] la_data_out[30] 35.448 
*END

*D_NET *324 0.00470463
*CONN
*P la_data_out[31] O
*I *646:io_la_data_out[31] O *D CaravelTopLevel
*CAP
1 la_data_out[31] 0.00127249
2 *646:io_la_data_out[31] 0.00127249
3 la_data_out[31] la_data_out[32] 4.77164e-06
4 la_data_out[31] *646:io_la_oenb[30] 0.000630686
5 la_data_out[31] *646:io_la_oenb[31] 0.000100268
6 *646:io_la_data_in[31] la_data_out[31] 0.0011513
7 *646:io_la_data_in[32] la_data_out[31] 0.000272622
*RES
1 *646:io_la_data_out[31] la_data_out[31] 35.1904 
*END

*D_NET *325 0.00422768
*CONN
*P la_data_out[32] O
*I *646:io_la_data_out[32] O *D CaravelTopLevel
*CAP
1 la_data_out[32] 0.0012417
2 *646:io_la_data_out[32] 0.0012417
3 la_data_out[32] *646:io_la_oenb[32] 0.00102129
4 la_data_out[31] la_data_out[32] 4.77164e-06
5 *646:io_la_data_in[32] la_data_out[32] 0.000312183
6 *646:io_la_data_in[33] la_data_out[32] 0.000406026
*RES
1 *646:io_la_data_out[32] la_data_out[32] 35.0187 
*END

*D_NET *326 0.00470424
*CONN
*P la_data_out[33] O
*I *646:io_la_data_out[33] O *D CaravelTopLevel
*CAP
1 la_data_out[33] 0.00106852
2 *646:io_la_data_out[33] 0.00106852
3 la_data_out[33] *646:io_la_oenb[32] 0.000337502
4 la_data_out[33] *646:io_la_oenb[33] 0.000969767
5 *646:io_la_data_in[33] la_data_out[33] 0.000901243
6 *646:io_la_data_in[34] la_data_out[33] 0.000358698
*RES
1 *646:io_la_data_out[33] la_data_out[33] 34.3705 
*END

*D_NET *327 0.00414345
*CONN
*P la_data_out[34] O
*I *646:io_la_data_out[34] O *D CaravelTopLevel
*CAP
1 la_data_out[34] 0.00105089
2 *646:io_la_data_out[34] 0.00105089
3 la_data_out[34] *646:io_la_oenb[33] 0.000264041
4 la_data_out[34] *646:io_la_oenb[34] 0.000780454
5 *646:io_la_data_in[34] la_data_out[34] 0.000827782
6 *646:io_la_data_in[35] la_data_out[34] 0.000169384
*RES
1 *646:io_la_data_out[34] la_data_out[34] 34.5893 
*END

*D_NET *328 0.00343102
*CONN
*P la_data_out[35] O
*I *646:io_la_data_out[35] O *D CaravelTopLevel
*CAP
1 la_data_out[35] 0.00112612
2 *646:io_la_data_out[35] 0.00112612
3 la_data_out[35] *646:io_la_oenb[35] 0.000277077
4 *646:io_la_data_in[35] la_data_out[35] 0.000733125
5 *646:io_la_data_in[36] la_data_out[35] 0.00016857
*RES
1 *646:io_la_data_out[35] la_data_out[35] 34.3317 
*END

*D_NET *329 0.00308583
*CONN
*P la_data_out[36] O
*I *646:io_la_data_out[36] O *D CaravelTopLevel
*CAP
1 la_data_out[36] 0.00109998
2 *646:io_la_data_out[36] 0.00109998
3 la_data_out[36] *646:io_la_oenb[35] 2.81221e-05
4 la_data_out[36] *646:io_la_oenb[36] 0.000548011
5 *646:io_la_data_in[36] la_data_out[36] 0.000309732
*RES
1 *646:io_la_data_out[36] la_data_out[36] 34.16 
*END

*D_NET *330 0.00285793
*CONN
*P la_data_out[37] O
*I *646:io_la_data_out[37] O *D CaravelTopLevel
*CAP
1 la_data_out[37] 0.00109376
2 *646:io_la_data_out[37] 0.00109376
3 la_data_out[37] *646:io_la_oenb[37] 0.000217061
4 *646:io_la_data_in[37] la_data_out[37] 0.000453354
5 *646:io_la_data_in[38] la_data_out[37] 0
*RES
1 *646:io_la_data_out[37] la_data_out[37] 33.9024 
*END

*D_NET *331 0.0027845
*CONN
*P la_data_out[38] O
*I *646:io_la_data_out[38] O *D CaravelTopLevel
*CAP
1 la_data_out[38] 0.00103355
2 *646:io_la_data_out[38] 0.00103355
3 la_data_out[38] *646:io_la_oenb[37] 0
4 la_data_out[38] *646:io_la_oenb[38] 0.000358698
5 *646:io_la_data_in[38] la_data_out[38] 0.000358698
*RES
1 *646:io_la_data_out[38] la_data_out[38] 33.3401 
*END

*D_NET *332 0.00260482
*CONN
*P la_data_out[39] O
*I *646:io_la_data_out[39] O *D CaravelTopLevel
*CAP
1 la_data_out[39] 0.00111946
2 *646:io_la_data_out[39] 0.00111946
3 la_data_out[39] *646:io_la_oenb[39] 0.000169384
4 *646:io_la_data_in[39] la_data_out[39] 0.000196512
*RES
1 *646:io_la_data_out[39] la_data_out[39] 33.4731 
*END

*D_NET *333 0.0106633
*CONN
*P la_data_out[3] O
*I *646:io_la_data_out[3] O *D CaravelTopLevel
*CAP
1 la_data_out[3] 0.000580858
2 *646:io_la_data_out[3] 9.66726e-05
3 *333:11 0.00185171
4 *333:9 0.00136752
5 *333:11 la_data_out[4] 0.000227312
6 *333:11 *400:9 0.000695517
7 *333:11 *483:9 0.000478159
8 la_data_out[0] la_data_out[3] 0.000389588
9 *646:io_la_data_in[0] la_data_out[3] 0
10 *646:io_la_data_in[1] *333:11 0.000112764
11 *205:9 *333:11 0.00426835
12 *311:9 *333:11 0.00059484
*RES
1 *646:io_la_data_out[3] *333:9 16.9368 
2 *333:9 *333:11 52.0757 
3 *333:11 la_data_out[3] 28.63 
*END

*D_NET *334 0.00251032
*CONN
*P la_data_out[40] O
*I *646:io_la_data_out[40] O *D CaravelTopLevel
*CAP
1 la_data_out[40] 0.00113338
2 *646:io_la_data_out[40] 0.00113338
3 la_data_out[40] *646:io_la_oenb[40] 0.000133001
4 *646:io_la_data_in[40] la_data_out[40] 0.00011057
*RES
1 *646:io_la_data_out[40] la_data_out[40] 33.3013 
*END

*D_NET *335 0.0022729
*CONN
*P la_data_out[41] O
*I *646:io_la_data_out[41] O *D CaravelTopLevel
*CAP
1 la_data_out[41] 0.00110209
2 *646:io_la_data_out[41] 0.00110209
3 la_data_out[41] *646:io_la_oenb[41] 4.77164e-06
4 *646:io_la_data_in[41] la_data_out[41] 6.39383e-05
*RES
1 *646:io_la_data_out[41] la_data_out[41] 33.0437 
*END

*D_NET *336 0.00174824
*CONN
*P la_data_out[42] O
*I *646:io_la_data_out[42] O *D CaravelTopLevel
*CAP
1 la_data_out[42] 0.00087412
2 *646:io_la_data_out[42] 0.00087412
*RES
1 *646:io_la_data_out[42] la_data_out[42] 19.9996 
*END

*D_NET *337 0.0016339
*CONN
*P la_data_out[43] O
*I *646:io_la_data_out[43] O *D CaravelTopLevel
*CAP
1 la_data_out[43] 0.00081695
2 *646:io_la_data_out[43] 0.00081695
3 *646:io_la_data_in[43] la_data_out[43] 0
*RES
1 *646:io_la_data_out[43] la_data_out[43] 18.7568 
*END

*D_NET *338 0.00151333
*CONN
*P la_data_out[44] O
*I *646:io_la_data_out[44] O *D CaravelTopLevel
*CAP
1 la_data_out[44] 0.000756666
2 *646:io_la_data_out[44] 0.000756666
3 la_data_out[44] *646:io_la_oenb[44] 0
*RES
1 *646:io_la_data_out[44] la_data_out[44] 17.4725 
*END

*D_NET *339 0.00143217
*CONN
*P la_data_out[45] O
*I *646:io_la_data_out[45] O *D CaravelTopLevel
*CAP
1 la_data_out[45] 0.000716087
2 *646:io_la_data_out[45] 0.000716087
*RES
1 *646:io_la_data_out[45] la_data_out[45] 16.5196 
*END

*D_NET *340 0.00132271
*CONN
*P la_data_out[46] O
*I *646:io_la_data_out[46] O *D CaravelTopLevel
*CAP
1 la_data_out[46] 0.000661353
2 *646:io_la_data_out[46] 0.000661353
*RES
1 *646:io_la_data_out[46] la_data_out[46] 14.9454 
*END

*D_NET *341 0.00128211
*CONN
*P la_data_out[47] O
*I *646:io_la_data_out[47] O *D CaravelTopLevel
*CAP
1 la_data_out[47] 0.000641057
2 *646:io_la_data_out[47] 0.000641057
*RES
1 *646:io_la_data_out[47] la_data_out[47] 14.6139 
*END

*D_NET *342 0.00140155
*CONN
*P la_data_out[48] O
*I *646:io_la_data_out[48] O *D CaravelTopLevel
*CAP
1 la_data_out[48] 0.000700775
2 *646:io_la_data_out[48] 0.000700775
*RES
1 *646:io_la_data_out[48] la_data_out[48] 15.8982 
*END

*D_NET *343 0.00145425
*CONN
*P la_data_out[49] O
*I *646:io_la_data_out[49] O *D CaravelTopLevel
*CAP
1 la_data_out[49] 0.000727126
2 *646:io_la_data_out[49] 0.000727126
3 la_data_out[49] *646:io_la_oenb[49] 0
*RES
1 *646:io_la_data_out[49] la_data_out[49] 16.8511 
*END

*D_NET *344 0.0117752
*CONN
*P la_data_out[4] O
*I *646:io_la_data_out[4] O *D CaravelTopLevel
*CAP
1 la_data_out[4] 0.00325904
2 *646:io_la_data_out[4] 0.00325904
3 la_data_out[4] *646:io_la_oenb[3] 0.00380882
4 la_data_out[4] *646:io_la_oenb[6] 0.000167883
5 la_data_out[4] *483:9 0.000364986
6 *646:io_la_data_in[5] la_data_out[4] 0.00056667
7 *646:io_la_data_in[7] la_data_out[4] 0.000121481
8 *333:11 la_data_out[4] 0.000227312
*RES
1 *646:io_la_data_out[4] la_data_out[4] 41.1152 
*END

*D_NET *345 0.00159681
*CONN
*P la_data_out[50] O
*I *646:io_la_data_out[50] O *D CaravelTopLevel
*CAP
1 la_data_out[50] 0.000798405
2 *646:io_la_data_out[50] 0.000798405
3 *646:io_la_data_in[50] la_data_out[50] 0
*RES
1 *646:io_la_data_out[50] la_data_out[50] 18.4254 
*END

*D_NET *346 0.00170736
*CONN
*P la_data_out[51] O
*I *646:io_la_data_out[51] O *D CaravelTopLevel
*CAP
1 la_data_out[51] 0.000853681
2 *646:io_la_data_out[51] 0.000853681
*RES
1 *646:io_la_data_out[51] la_data_out[51] 19.9996 
*END

*D_NET *347 0.00193309
*CONN
*P la_data_out[52] O
*I *646:io_la_data_out[52] O *D CaravelTopLevel
*CAP
1 la_data_out[52] 0.000962779
2 *646:io_la_data_out[52] 0.000962779
3 la_data_out[52] *646:io_la_oenb[52] 4.77164e-06
4 *646:io_la_data_in[52] la_data_out[52] 2.75733e-06
*RES
1 *646:io_la_data_out[52] la_data_out[52] 32.9579 
*END

*D_NET *348 0.00229984
*CONN
*P la_data_out[53] O
*I *646:io_la_data_out[53] O *D CaravelTopLevel
*CAP
1 la_data_out[53] 0.00100558
2 *646:io_la_data_out[53] 0.00100558
3 la_data_out[53] *646:io_la_oenb[53] 0.000260565
4 *646:io_la_data_in[53] la_data_out[53] 2.81221e-05
*RES
1 *646:io_la_data_out[53] la_data_out[53] 33.2155 
*END

*D_NET *349 0.00234245
*CONN
*P la_data_out[54] O
*I *646:io_la_data_out[54] O *D CaravelTopLevel
*CAP
1 la_data_out[54] 0.00104759
2 *646:io_la_data_out[54] 0.00104759
3 la_data_out[54] *646:io_la_oenb[54] 0.000182058
4 *646:io_la_data_in[54] la_data_out[54] 6.52226e-05
*RES
1 *646:io_la_data_out[54] la_data_out[54] 33.3872 
*END

*D_NET *350 0.00295954
*CONN
*P la_data_out[55] O
*I *646:io_la_data_out[55] O *D CaravelTopLevel
*CAP
1 la_data_out[55] 0.00107722
2 *646:io_la_data_out[55] 0.00107722
3 la_data_out[55] *646:io_la_oenb[55] 0.000355222
4 *646:io_la_data_in[55] la_data_out[55] 0.000449878
*RES
1 *646:io_la_data_out[55] la_data_out[55] 32.559 
*END

*D_NET *351 0.00250201
*CONN
*P la_data_out[56] O
*I *646:io_la_data_out[56] O *D CaravelTopLevel
*CAP
1 la_data_out[56] 0.00110091
2 *646:io_la_data_out[56] 0.00110091
3 la_data_out[56] *646:io_la_oenb[55] 0
4 la_data_out[56] *646:io_la_oenb[56] 0.000140398
5 *646:io_la_data_in[56] la_data_out[56] 0.000131664
6 *646:io_la_data_in[57] la_data_out[56] 2.81221e-05
*RES
1 *646:io_la_data_out[56] la_data_out[56] 33.8165 
*END

*D_NET *352 0.00310875
*CONN
*P la_data_out[57] O
*I *646:io_la_data_out[57] O *D CaravelTopLevel
*CAP
1 la_data_out[57] 0.00107289
2 *646:io_la_data_out[57] 0.00107289
3 la_data_out[57] *646:io_la_oenb[56] 4.77164e-06
4 la_data_out[57] *646:io_la_oenb[57] 0.000544535
5 *646:io_la_data_in[57] la_data_out[57] 0.00029805
6 *646:io_la_data_in[58] la_data_out[57] 0.000115611
*RES
1 *646:io_la_data_out[57] la_data_out[57] 33.6836 
*END

*D_NET *353 0.00297349
*CONN
*P la_data_out[58] O
*I *646:io_la_data_out[58] O *D CaravelTopLevel
*CAP
1 la_data_out[58] 0.0011517
2 *646:io_la_data_out[58] 0.0011517
3 la_data_out[58] *646:io_la_oenb[57] 2.81221e-05
4 la_data_out[58] *646:io_la_oenb[58] 0.000203683
5 *646:io_la_data_in[58] la_data_out[58] 0.000328121
6 *646:io_la_data_in[59] la_data_out[58] 0.000110159
*RES
1 *646:io_la_data_out[58] la_data_out[58] 34.2459 
*END

*D_NET *354 0.00360818
*CONN
*P la_data_out[59] O
*I *646:io_la_data_out[59] O *D CaravelTopLevel
*CAP
1 la_data_out[59] 0.00119778
2 *646:io_la_data_out[59] 0.00119778
3 la_data_out[59] *646:io_la_oenb[58] 5.13684e-05
4 la_data_out[59] *646:io_la_oenb[59] 0.000781176
5 *646:io_la_data_in[59] la_data_out[59] 0.000163377
6 *646:io_la_data_in[60] la_data_out[59] 0.000216704
*RES
1 *646:io_la_data_out[59] la_data_out[59] 34.5035 
*END

*D_NET *355 0.0127155
*CONN
*P la_data_out[5] O
*I *646:io_la_data_out[5] O *D CaravelTopLevel
*CAP
1 la_data_out[5] 0.0019673
2 *646:io_la_data_out[5] 0.0019673
3 la_data_out[5] *646:io_la_oenb[2] 0.000355222
4 *646:io_la_data_in[4] la_data_out[5] 0.000427807
5 *646:io_la_data_in[5] la_data_out[5] 0.00427366
6 *646:io_la_data_in[6] la_data_out[5] 0.00356678
7 *646:io_la_data_in[7] la_data_out[5] 5.09438e-05
8 *646:io_la_data_in[8] la_data_out[5] 0.000106496
*RES
1 *646:io_la_data_out[5] la_data_out[5] 40.9435 
*END

*D_NET *356 0.00363673
*CONN
*P la_data_out[60] O
*I *646:io_la_data_out[60] O *D CaravelTopLevel
*CAP
1 la_data_out[60] 0.00156013
2 *646:io_la_data_out[60] 0.00156013
3 la_data_out[60] la_data_out[61] 0
4 la_data_out[60] *646:io_la_oenb[60] 0.000516475
5 *646:io_la_data_in[61] la_data_out[60] 0
*RES
1 *646:io_la_data_out[60] la_data_out[60] 33.1766 
*END

*D_NET *357 0.00458428
*CONN
*P la_data_out[61] O
*I *646:io_la_data_out[61] O *D CaravelTopLevel
*CAP
1 la_data_out[61] 0.00132197
2 *646:io_la_data_out[61] 0.00132197
3 la_data_out[61] *646:io_la_oenb[60] 0
4 la_data_out[61] *646:io_la_oenb[61] 0.00101362
5 la_data_out[60] la_data_out[61] 0
6 *646:io_la_data_in[61] la_data_out[61] 0.000926712
*RES
1 *646:io_la_data_out[61] la_data_out[61] 34.9328 
*END

*D_NET *358 0.00542845
*CONN
*P la_data_out[62] O
*I *646:io_la_data_out[62] O *D CaravelTopLevel
*CAP
1 la_data_out[62] 0.00122902
2 *646:io_la_data_out[62] 0.00122902
3 la_data_out[62] la_data_out[63] 0.00072417
4 la_data_out[62] *646:io_la_oenb[62] 0.00124882
5 *646:io_la_data_in[62] la_data_out[62] 0.000267983
6 *646:io_la_data_in[63] la_data_out[62] 0.000729437
*RES
1 *646:io_la_data_out[62] la_data_out[62] 33.6059 
*END

*D_NET *359 0.00410668
*CONN
*P la_data_out[63] O
*I *646:io_la_data_out[63] O *D CaravelTopLevel
*CAP
1 la_data_out[63] 0.00169126
2 *646:io_la_data_out[63] 0.00169126
3 la_data_out[62] la_data_out[63] 0.00072417
*RES
1 *646:io_la_data_out[63] la_data_out[63] 34.9716 
*END

*D_NET *360 0.00553462
*CONN
*P la_data_out[64] O
*I *646:io_la_data_out[64] O *D CaravelTopLevel
*CAP
1 la_data_out[64] 0.00122647
2 *646:io_la_data_out[64] 0.00122647
3 la_data_out[64] la_data_out[65] 0.000414036
4 la_data_out[64] *646:io_la_oenb[63] 0.000864893
5 la_data_out[64] *646:io_la_oenb[64] 0.00036418
6 la_data_out[64] *646:io_la_oenb[65] 1.7998e-06
7 *646:io_la_data_in[63] la_data_out[64] 0
8 *646:io_la_data_in[64] la_data_out[64] 0.00143676
*RES
1 *646:io_la_data_out[64] la_data_out[64] 34.1078 
*END

*D_NET *361 0.00599255
*CONN
*P la_data_out[65] O
*I *646:io_la_data_out[65] O *D CaravelTopLevel
*CAP
1 la_data_out[65] 0.00111773
2 *646:io_la_data_out[65] 0.00111773
3 la_data_out[65] la_data_out[66] 0.000505197
4 la_data_out[65] *646:io_la_oenb[64] 0.000999067
5 la_data_out[65] *646:io_la_oenb[65] 0.00157896
6 la_data_out[64] la_data_out[65] 0.000414036
7 *646:io_la_data_in[65] la_data_out[65] 0.000259819
*RES
1 *646:io_la_data_out[65] la_data_out[65] 34.207 
*END

*D_NET *362 0.00570627
*CONN
*P la_data_out[66] O
*I *646:io_la_data_out[66] O *D CaravelTopLevel
*CAP
1 la_data_out[66] 0.0013594
2 *646:io_la_data_out[66] 0.0013594
3 la_data_out[66] *646:io_la_oenb[65] 1.84725e-05
4 la_data_out[66] *646:io_la_oenb[66] 0.001812
5 la_data_out[66] *646:io_la_oenb[67] 1.83836e-05
6 la_data_out[65] la_data_out[66] 0.000505197
7 *646:io_la_data_in[67] la_data_out[66] 0.000633408
*RES
1 *646:io_la_data_out[66] la_data_out[66] 36.4385 
*END

*D_NET *363 0.00650961
*CONN
*P la_data_out[67] O
*I *646:io_la_data_out[67] O *D CaravelTopLevel
*CAP
1 la_data_out[67] 0.00129608
2 *646:io_la_data_out[67] 0.00129608
3 la_data_out[67] la_data_out[68] 0.000729247
4 la_data_out[67] *646:io_la_oenb[66] 0.00124174
5 la_data_out[67] *646:io_la_oenb[67] 0.00179373
6 *646:io_la_data_in[66] la_data_out[67] 4.93913e-05
7 *646:io_la_data_in[68] la_data_out[67] 0.000103333
*RES
1 *646:io_la_data_out[67] la_data_out[67] 34.7088 
*END

*D_NET *364 0.00697463
*CONN
*P la_data_out[68] O
*I *646:io_la_data_out[68] O *D CaravelTopLevel
*CAP
1 la_data_out[68] 0.00124962
2 *646:io_la_data_out[68] 0.00124962
3 la_data_out[68] *646:io_la_oenb[67] 0.000176758
4 la_data_out[68] *646:io_la_oenb[68] 0.00192315
5 la_data_out[67] la_data_out[68] 0.000729247
6 *646:io_la_data_in[68] la_data_out[68] 0.000267474
7 *646:io_la_data_in[69] la_data_out[68] 0.00137875
*RES
1 *646:io_la_data_out[68] la_data_out[68] 34.8939 
*END

*D_NET *365 0.00543305
*CONN
*P la_data_out[69] O
*I *646:io_la_data_out[69] O *D CaravelTopLevel
*CAP
1 la_data_out[69] 0.0015611
2 *646:io_la_data_out[69] 0.0015611
3 *646:io_la_data_in[69] la_data_out[69] 0.00204338
4 *646:io_la_data_in[70] la_data_out[69] 0.000267474
*RES
1 *646:io_la_data_out[69] la_data_out[69] 35.1382 
*END

*D_NET *366 0.0103007
*CONN
*P la_data_out[6] O
*I *646:io_la_data_out[6] O *D CaravelTopLevel
*CAP
1 la_data_out[6] 0.0022674
2 *646:io_la_data_out[6] 0.0022674
3 la_data_out[6] la_data_out[7] 0.00287394
4 la_data_out[6] *646:io_la_oenb[4] 0.00187675
5 la_data_out[6] *388:11 0.000101159
6 *646:io_la_data_in[6] la_data_out[6] 0.000780187
7 *646:io_la_data_in[8] la_data_out[6] 8.32381e-05
8 *646:io_la_data_in[9] la_data_out[6] 5.06049e-05
*RES
1 *646:io_la_data_out[6] la_data_out[6] 40.6859 
*END

*D_NET *367 0.00523346
*CONN
*P la_data_out[70] O
*I *646:io_la_data_out[70] O *D CaravelTopLevel
*CAP
1 la_data_out[70] 0.00198219
2 *646:io_la_data_out[70] 0.00198219
3 la_data_out[70] la_data_out[71] 0.000507623
4 la_data_out[70] *646:io_la_oenb[69] 0.000704418
5 la_data_out[70] *646:io_la_oenb[70] 5.70373e-05
*RES
1 *646:io_la_data_out[70] la_data_out[70] 38.821 
*END

*D_NET *368 0.0073542
*CONN
*P la_data_out[71] O
*I *646:io_la_data_out[71] O *D CaravelTopLevel
*CAP
1 la_data_out[71] 0.00164023
2 *646:io_la_data_out[71] 0.00164023
3 la_data_out[71] la_data_out[72] 0.00125757
4 la_data_out[71] *646:io_la_oenb[70] 0.00157806
5 la_data_out[70] la_data_out[71] 0.000507623
6 *646:io_la_data_in[72] la_data_out[71] 0.000545077
7 *646:io_la_data_in[73] la_data_out[71] 0.000185405
*RES
1 *646:io_la_data_out[71] la_data_out[71] 37.6967 
*END

*D_NET *369 0.00804776
*CONN
*P la_data_out[72] O
*I *646:io_la_data_out[72] O *D CaravelTopLevel
*CAP
1 la_data_out[72] 0.00159132
2 *646:io_la_data_out[72] 0.00159132
3 la_data_out[72] *646:io_la_oenb[72] 0.00239781
4 la_data_out[72] *646:io_la_oenb[73] 0.000772356
5 la_data_out[71] la_data_out[72] 0.00125757
6 *646:io_la_data_in[73] la_data_out[72] 0.000437386
7 *646:io_la_data_in[74] la_data_out[72] 0
*RES
1 *646:io_la_data_out[72] la_data_out[72] 37.8655 
*END

*D_NET *370 0.00793637
*CONN
*P la_data_out[73] O
*I *646:io_la_data_out[73] O *D CaravelTopLevel
*CAP
1 la_data_out[73] 0.00141993
2 *646:io_la_data_out[73] 0.00141993
3 la_data_out[73] *646:io_la_oenb[73] 0.000108921
4 la_data_out[73] *646:io_la_oenb[74] 0.00090662
5 *646:io_la_data_in[72] la_data_out[73] 0.000711328
6 *646:io_la_data_in[73] la_data_out[73] 0.00246623
7 *646:io_la_data_in[74] la_data_out[73] 0.000534947
8 *244:17 la_data_out[73] 0.000368456
*RES
1 *646:io_la_data_out[73] la_data_out[73] 36.0102 
*END

*D_NET *371 0.00790976
*CONN
*P la_data_out[74] O
*I *646:io_la_data_out[74] O *D CaravelTopLevel
*CAP
1 la_data_out[74] 0.00166077
2 *646:io_la_data_out[74] 0.00166077
3 la_data_out[74] la_data_out[75] 0.000595166
4 la_data_out[74] *646:io_la_oenb[72] 0.000277294
5 la_data_out[74] *646:io_la_oenb[73] 0.00205108
6 la_data_out[74] *646:io_la_oenb[75] 0.000732267
7 *244:17 la_data_out[74] 0.000932414
*RES
1 *646:io_la_data_out[74] la_data_out[74] 39.1461 
*END

*D_NET *372 0.00845821
*CONN
*P la_data_out[75] O
*I *646:io_la_data_out[75] O *D CaravelTopLevel
*CAP
1 la_data_out[75] 0.00172406
2 *646:io_la_data_out[75] 0.00172406
3 la_data_out[75] la_data_out[77] 7.57295e-05
4 la_data_out[75] *646:io_la_oenb[75] 0.00237317
5 la_data_out[74] la_data_out[75] 0.000595166
6 *646:io_la_data_in[76] la_data_out[75] 0.00196602
*RES
1 *646:io_la_data_out[75] la_data_out[75] 42.0351 
*END

*D_NET *373 0.00848329
*CONN
*P la_data_out[76] O
*I *646:io_la_data_out[76] O *D CaravelTopLevel
*CAP
1 la_data_out[76] 0.00151743
2 *646:io_la_data_out[76] 0.00151743
3 la_data_out[76] la_data_out[78] 0.000185405
4 la_data_out[76] *646:io_la_oenb[75] 0.00227899
5 la_data_out[76] *646:io_la_oenb[76] 0.00116369
6 la_data_out[76] *646:io_la_oenb[78] 0
7 *646:io_la_data_in[76] la_data_out[76] 0.000221982
8 *646:io_la_data_in[78] la_data_out[76] 0.000728519
9 *244:17 la_data_out[76] 0.000869842
*RES
1 *646:io_la_data_out[76] la_data_out[76] 38.7271 
*END

*D_NET *374 0.00742836
*CONN
*P la_data_out[77] O
*I *646:io_la_data_out[77] O *D CaravelTopLevel
*CAP
1 la_data_out[77] 0.00188368
2 *646:io_la_data_out[77] 0.00188368
3 la_data_out[77] la_data_out[79] 0.000355823
4 la_data_out[77] *646:io_la_oenb[76] 0.000271346
5 la_data_out[77] *646:io_la_oenb[77] 0.00295809
6 la_data_out[75] la_data_out[77] 7.57295e-05
*RES
1 *646:io_la_data_out[77] la_data_out[77] 36.9414 
*END

*D_NET *375 0.00774466
*CONN
*P la_data_out[78] O
*I *646:io_la_data_out[78] O *D CaravelTopLevel
*CAP
1 la_data_out[78] 0.00204707
2 *646:io_la_data_out[78] 0.00204707
3 la_data_out[78] la_data_out[80] 0
4 la_data_out[78] *646:io_la_oenb[76] 0.000720447
5 la_data_out[78] *646:io_la_oenb[77] 0.000846083
6 la_data_out[78] *646:io_la_oenb[79] 5.99197e-05
7 la_data_out[78] *646:io_la_oenb[80] 0
8 la_data_out[76] la_data_out[78] 0.000185405
9 *646:io_la_data_in[78] la_data_out[78] 0.0014078
10 *646:io_la_data_in[80] la_data_out[78] 0.000430865
*RES
1 *646:io_la_data_out[78] la_data_out[78] 37.7449 
*END

*D_NET *376 0.00660669
*CONN
*P la_data_out[79] O
*I *646:io_la_data_out[79] O *D CaravelTopLevel
*CAP
1 la_data_out[79] 0.00218897
2 *646:io_la_data_out[79] 0.00218897
3 la_data_out[79] *646:io_la_oenb[79] 0
4 la_data_out[77] la_data_out[79] 0.000355823
5 *646:io_la_data_in[79] la_data_out[79] 0.00171419
6 *646:io_la_data_in[81] la_data_out[79] 0.000158728
*RES
1 *646:io_la_data_out[79] la_data_out[79] 40.6818 
*END

*D_NET *377 0.00880969
*CONN
*P la_data_out[7] O
*I *646:io_la_data_out[7] O *D CaravelTopLevel
*CAP
1 la_data_out[7] 0.00269553
2 *646:io_la_data_out[7] 0.00269553
3 la_data_out[7] *646:io_la_oenb[9] 0
4 la_data_out[7] *388:11 0.000101159
5 la_data_out[6] la_data_out[7] 0.00287394
6 *646:io_la_data_in[7] la_data_out[7] 0
7 *646:io_la_data_in[8] la_data_out[7] 0
8 *646:io_la_data_in[9] la_data_out[7] 0.000443528
9 *155:7 la_data_out[7] 0
*RES
1 *646:io_la_data_out[7] la_data_out[7] 40.5141 
*END

*D_NET *378 0.00742965
*CONN
*P la_data_out[80] O
*I *646:io_la_data_out[80] O *D CaravelTopLevel
*CAP
1 la_data_out[80] 0.00188488
2 *646:io_la_data_out[80] 0.00188488
3 la_data_out[80] la_data_out[82] 0.000548002
4 la_data_out[80] *646:io_la_oenb[78] 0.000260569
5 la_data_out[80] *646:io_la_oenb[80] 0.00173739
6 la_data_out[78] la_data_out[80] 0
7 *646:io_la_data_in[78] la_data_out[80] 0
8 *646:io_la_data_in[79] la_data_out[80] 0.000370723
9 *646:io_la_data_in[81] la_data_out[80] 0.0007432
*RES
1 *646:io_la_data_out[80] la_data_out[80] 38.0545 
*END

*D_NET *379 0.00791321
*CONN
*P la_data_out[81] O
*I *646:io_la_data_out[81] O *D CaravelTopLevel
*CAP
1 la_data_out[81] 0.00245168
2 *646:io_la_data_out[81] 0.00245168
3 la_data_out[81] la_data_out[82] 0.000294174
4 la_data_out[81] *646:io_la_oenb[80] 0.00271568
5 la_data_out[81] *646:io_la_oenb[83] 0
*RES
1 *646:io_la_data_out[81] la_data_out[81] 39.312 
*END

*D_NET *380 0.00890475
*CONN
*P la_data_out[82] O
*I *646:io_la_data_out[82] O *D CaravelTopLevel
*CAP
1 la_data_out[82] 0.00192703
2 *646:io_la_data_out[82] 0.00192703
3 la_data_out[82] la_data_out[84] 0
4 la_data_out[82] *646:io_la_oenb[80] 0.00020766
5 la_data_out[82] *646:io_la_oenb[84] 0
6 la_data_out[80] la_data_out[82] 0.000548002
7 la_data_out[81] la_data_out[82] 0.000294174
8 *646:io_la_data_in[80] la_data_out[82] 0.000453922
9 *646:io_la_data_in[81] la_data_out[82] 0.000638557
10 *646:io_la_data_in[83] la_data_out[82] 0.00290838
11 *646:io_la_data_in[85] la_data_out[82] 0
*RES
1 *646:io_la_data_out[82] la_data_out[82] 39.1791 
*END

*D_NET *381 0.00862997
*CONN
*P la_data_out[83] O
*I *646:io_la_data_out[83] O *D CaravelTopLevel
*CAP
1 la_data_out[83] 0.00253319
2 *646:io_la_data_out[83] 0.00253319
3 la_data_out[83] la_data_out[84] 0
4 la_data_out[83] la_data_out[85] 0
5 la_data_out[83] *646:io_la_oenb[82] 0.00300334
6 la_data_out[83] *646:io_la_oenb[85] 0
7 *646:io_la_data_in[83] la_data_out[83] 0
8 *646:io_la_data_in[84] la_data_out[83] 0.000560261
9 *646:io_la_data_in[86] la_data_out[83] 0
*RES
1 *646:io_la_data_out[83] la_data_out[83] 38.2294 
*END

*D_NET *382 0.00693267
*CONN
*P la_data_out[84] O
*I *646:io_la_data_out[84] O *D CaravelTopLevel
*CAP
1 la_data_out[84] 0.00298389
2 *646:io_la_data_out[84] 0.00298389
3 la_data_out[84] la_data_out[85] 0.00096489
4 la_data_out[84] *646:io_la_oenb[84] 0
5 la_data_out[84] *646:io_la_oenb[86] 0
6 la_data_out[82] la_data_out[84] 0
7 la_data_out[83] la_data_out[84] 0
8 *646:io_la_data_in[83] la_data_out[84] 0
*RES
1 *646:io_la_data_out[84] la_data_out[84] 39.9989 
*END

*D_NET *383 0.00890961
*CONN
*P la_data_out[85] O
*I *646:io_la_data_out[85] O *D CaravelTopLevel
*CAP
1 la_data_out[85] 0.0021408
2 *646:io_la_data_out[85] 0.0021408
3 la_data_out[85] la_data_out[86] 0.000467329
4 la_data_out[85] la_data_out[87] 0.00111174
5 la_data_out[85] *646:io_la_oenb[82] 0
6 la_data_out[85] *646:io_la_oenb[87] 0
7 la_data_out[83] la_data_out[85] 0
8 la_data_out[84] la_data_out[85] 0.00096489
9 *646:io_la_data_in[84] la_data_out[85] 0
10 *646:io_la_data_in[86] la_data_out[85] 0.000211637
11 *646:io_la_data_in[87] la_data_out[85] 0.00181747
12 *646:io_la_data_in[88] la_data_out[85] 5.49449e-05
*RES
1 *646:io_la_data_out[85] la_data_out[85] 39.0849 
*END

*D_NET *384 0.0114348
*CONN
*P la_data_out[86] O
*I *646:io_la_data_out[86] O *D CaravelTopLevel
*CAP
1 la_data_out[86] 0.00165119
2 *646:io_la_data_out[86] 0.00165119
3 la_data_out[85] la_data_out[86] 0.000467329
4 *646:io_la_data_in[84] la_data_out[86] 0
5 *646:io_la_data_in[86] la_data_out[86] 0.003931
6 *646:io_la_data_in[87] la_data_out[86] 0.00364301
7 *646:io_la_data_in[89] la_data_out[86] 9.10923e-05
*RES
1 *646:io_la_data_out[86] la_data_out[86] 40.4283 
*END

*D_NET *385 0.0113671
*CONN
*P la_data_out[87] O
*I *646:io_la_data_out[87] O *D CaravelTopLevel
*CAP
1 la_data_out[87] 0.00171693
2 *646:io_la_data_out[87] 0.00171693
3 la_data_out[87] la_data_out[88] 0.00295652
4 la_data_out[87] *389:9 0
5 la_data_out[85] la_data_out[87] 0.00111174
6 *646:io_la_data_in[85] la_data_out[87] 0
7 *646:io_la_data_in[87] la_data_out[87] 0.000340507
8 *646:io_la_data_in[88] la_data_out[87] 0.00352446
*RES
1 *646:io_la_data_out[87] la_data_out[87] 40.2095 
*END

*D_NET *386 0.0110147
*CONN
*P la_data_out[88] O
*I *646:io_la_data_out[88] O *D CaravelTopLevel
*CAP
1 la_data_out[88] 0.00192922
2 *646:io_la_data_out[88] 0.00192922
3 la_data_out[88] *646:io_la_oenb[88] 0
4 la_data_out[88] *646:io_la_oenb[89] 0.000146541
5 la_data_out[88] *514:9 0
6 la_data_out[87] la_data_out[88] 0.00295652
7 *646:io_la_data_in[87] la_data_out[88] 0.00238931
8 *646:io_la_data_in[88] la_data_out[88] 0.00062464
9 *646:io_la_data_in[90] la_data_out[88] 0.00103929
*RES
1 *646:io_la_data_out[88] la_data_out[88] 40.8576 
*END

*D_NET *387 0.0104005
*CONN
*P la_data_out[89] O
*I *646:io_la_data_out[89] O *D CaravelTopLevel
*CAP
1 la_data_out[89] 0.00252945
2 *646:io_la_data_out[89] 0.00252945
3 la_data_out[89] la_data_out[92] 6.56182e-06
4 la_data_out[89] *646:io_la_oenb[89] 0.000284346
5 *646:io_la_data_in[89] la_data_out[89] 0.00426006
6 *646:io_la_data_in[91] la_data_out[89] 0.000790603
*RES
1 *646:io_la_data_out[89] la_data_out[89] 41.0293 
*END

*D_NET *388 0.00781056
*CONN
*P la_data_out[8] O
*I *646:io_la_data_out[8] O *D CaravelTopLevel
*CAP
1 la_data_out[8] 0.000824195
2 *646:io_la_data_out[8] 0.000151315
3 *388:11 0.00230025
4 *388:9 0.00162737
5 la_data_out[8] *646:io_la_oenb[5] 0
6 *388:11 *646:io_la_oenb[6] 0.000333797
7 *388:11 *646:io_la_oenb[7] 0.000101159
8 *388:11 *505:17 0.000634428
9 la_data_out[6] *388:11 0.000101159
10 la_data_out[7] *388:11 0.000101159
11 *646:io_la_data_in[6] la_data_out[8] 0
12 *646:io_la_data_in[6] *388:11 0.000101159
13 *646:io_la_data_in[8] *388:11 0.000101159
14 *155:9 *388:11 0.00143342
*RES
1 *646:io_la_data_out[8] *388:9 16.5846 
2 *388:9 *388:11 43.5 
3 *388:11 la_data_out[8] 31.8614 
*END

*D_NET *389 0.0102327
*CONN
*P la_data_out[90] O
*I *646:io_la_data_out[90] O *D CaravelTopLevel
*CAP
1 la_data_out[90] 0.000371705
2 *646:io_la_data_out[90] 0.000508702
3 *389:11 0.00175016
4 *389:9 0.00188716
5 *389:11 *514:11 0.00179214
6 *389:11 *517:9 0.00392279
7 la_data_out[87] *389:9 0
8 *646:io_la_data_in[90] *389:9 0
*RES
1 *646:io_la_data_out[90] *389:9 24.7875 
2 *389:9 *389:11 50.17 
3 *389:11 la_data_out[90] 22.83 
*END

*D_NET *390 0.0121091
*CONN
*P la_data_out[91] O
*I *646:io_la_data_out[91] O *D CaravelTopLevel
*CAP
1 la_data_out[91] 0.00223591
2 *646:io_la_data_out[91] 0.00223591
3 la_data_out[91] la_data_out[92] 0.000409993
4 la_data_out[91] *646:io_la_oenb[91] 0.00452246
5 *646:io_la_data_in[90] la_data_out[91] 0.0027048
*RES
1 *646:io_la_data_out[91] la_data_out[91] 41.5445 
*END

*D_NET *391 0.00935094
*CONN
*P la_data_out[92] O
*I *646:io_la_data_out[92] O *D CaravelTopLevel
*CAP
1 la_data_out[92] 0.00276539
2 *646:io_la_data_out[92] 0.00276539
3 la_data_out[92] la_data_out[94] 0.00149148
4 la_data_out[92] *646:io_la_oenb[89] 0.000225296
5 la_data_out[92] *646:io_la_oenb[91] 0
6 la_data_out[92] *646:io_la_oenb[95] 0
7 la_data_out[92] *394:9 0
8 la_data_out[92] *519:9 0
9 la_data_out[89] la_data_out[92] 6.56182e-06
10 la_data_out[91] la_data_out[92] 0.000409993
11 *646:io_la_data_in[90] la_data_out[92] 0.000163258
12 *646:io_la_data_in[91] la_data_out[92] 0.00144065
13 *646:io_la_data_in[93] la_data_out[92] 8.29142e-05
*RES
1 *646:io_la_data_out[92] la_data_out[92] 40.2043 
*END

*D_NET *392 0.00837615
*CONN
*P la_data_out[93] O
*I *646:io_la_data_out[93] O *D CaravelTopLevel
*CAP
1 la_data_out[93] 0.00045269
2 *646:io_la_data_out[93] 0.000533394
3 *392:11 0.00231108
4 *392:9 0.00239179
5 *392:9 *646:io_la_oenb[93] 0
6 *392:11 *517:9 0.000530622
7 *392:11 *519:11 0.00172086
8 *392:11 *520:9 0.000435718
9 *646:io_la_data_in[93] la_data_out[93] 0
*RES
1 *646:io_la_data_out[93] *392:9 26.2168 
2 *392:9 *392:11 52.0757 
3 *392:11 la_data_out[93] 23.5343 
*END

*D_NET *393 0.0113033
*CONN
*P la_data_out[94] O
*I *646:io_la_data_out[94] O *D CaravelTopLevel
*CAP
1 la_data_out[94] 0.00265363
2 *646:io_la_data_out[94] 0.00265363
3 la_data_out[94] la_data_out[96] 0.00217992
4 la_data_out[94] la_data_out[97] 0
5 la_data_out[94] *646:io_la_oenb[97] 0.000291187
6 la_data_out[92] la_data_out[94] 0.00149148
7 *646:io_la_data_in[93] la_data_out[94] 0.00197919
8 *646:io_la_data_in[95] la_data_out[94] 5.4252e-05
*RES
1 *646:io_la_data_out[94] la_data_out[94] 39.6304 
*END

*D_NET *394 0.0100512
*CONN
*P la_data_out[95] O
*I *646:io_la_data_out[95] O *D CaravelTopLevel
*CAP
1 la_data_out[95] 0.000152789
2 *646:io_la_data_out[95] 0.000754461
3 *394:11 0.00254663
4 *394:9 0.0031483
5 *394:11 *522:15 0
6 *394:11 *524:11 0.00079213
7 *394:11 *525:15 0.000272377
8 la_data_out[92] *394:9 0
9 *646:io_la_data_in[92] *394:9 0
10 *646:io_la_data_in[96] *394:11 0.00188649
11 *268:11 *394:11 0.000498031
*RES
1 *646:io_la_data_out[95] *394:9 30.7739 
2 *394:9 *394:11 60.175 
3 *394:11 la_data_out[95] 16.3464 
*END

*D_NET *395 0.0116953
*CONN
*P la_data_out[96] O
*I *646:io_la_data_out[96] O *D CaravelTopLevel
*CAP
1 la_data_out[96] 0.00252348
2 *646:io_la_data_out[96] 0.00252348
3 la_data_out[96] la_data_out[98] 0.0024459
4 la_data_out[96] *646:io_la_oenb[96] 0.00131741
5 la_data_out[96] *646:io_la_oenb[99] 0.000539412
6 la_data_out[94] la_data_out[96] 0.00217992
7 *646:io_la_data_in[100] la_data_out[96] 0
8 *646:io_la_data_in[93] la_data_out[96] 2.12829e-05
9 *646:io_la_data_in[95] la_data_out[96] 0.000144466
*RES
1 *646:io_la_data_out[96] la_data_out[96] 41.063 
*END

*D_NET *396 0.0147627
*CONN
*P la_data_out[97] O
*I *646:io_la_data_out[97] O *D CaravelTopLevel
*CAP
1 la_data_out[97] 0.00296659
2 *646:io_la_data_out[97] 0.00296659
3 la_data_out[97] la_data_out[99] 0.00128998
4 la_data_out[97] *524:11 0.000998081
5 la_data_out[97] *525:15 0.00066276
6 la_data_out[97] *526:11 0.00065633
7 la_data_out[94] la_data_out[97] 0
8 *646:io_la_data_in[94] la_data_out[97] 0.000223849
9 *646:io_la_data_in[96] la_data_out[97] 0.00330389
10 *646:io_la_data_in[98] la_data_out[97] 0.000536151
11 *646:io_la_data_in[99] la_data_out[97] 0.000211637
12 *268:11 la_data_out[97] 0.000946888
*RES
1 *646:io_la_data_out[97] la_data_out[97] 44.318 
*END

*D_NET *397 0.0133184
*CONN
*P la_data_out[98] O
*I *646:io_la_data_out[98] O *D CaravelTopLevel
*CAP
1 la_data_out[98] 0.00355055
2 *646:io_la_data_out[98] 0.00355055
3 la_data_out[98] *646:io_la_oenb[101] 0.000525317
4 la_data_out[98] *646:io_la_oenb[96] 0.00303459
5 la_data_out[96] la_data_out[98] 0.0024459
6 *646:io_la_data_in[101] la_data_out[98] 0.00021153
*RES
1 *646:io_la_data_out[98] la_data_out[98] 44.0532 
*END

*D_NET *398 0.0155293
*CONN
*P la_data_out[99] O
*I *646:io_la_data_out[99] O *D CaravelTopLevel
*CAP
1 la_data_out[99] 0.00241412
2 *646:io_la_data_out[99] 0.00241412
3 la_data_out[99] *401:9 0.000338123
4 la_data_out[97] la_data_out[99] 0.00128998
5 *646:io_la_data_in[100] la_data_out[99] 0.000193304
6 *646:io_la_data_in[101] la_data_out[99] 0.00337454
7 *646:io_la_data_in[103] la_data_out[99] 1.41966e-05
8 *646:io_la_data_in[99] la_data_out[99] 0.0054909
*RES
1 *646:io_la_data_out[99] la_data_out[99] 44.1409 
*END

*D_NET *399 0.010156
*CONN
*P la_data_out[9] O
*I *646:io_la_data_out[9] O *D CaravelTopLevel
*CAP
1 la_data_out[9] 0.00213392
2 *646:io_la_data_out[9] 0.00213392
3 *646:io_la_data_in[11] la_data_out[9] 0
4 *646:io_la_data_in[8] la_data_out[9] 0.00211387
5 *646:io_la_data_in[9] la_data_out[9] 0.00377425
*RES
1 *646:io_la_data_out[9] la_data_out[9] 40.0848 
*END

*D_NET *400 0.0128607
*CONN
*P la_oenb[0] I
*I *646:io_la_oenb[0] I *D CaravelTopLevel
*CAP
1 la_oenb[0] 0.000637709
2 *646:io_la_oenb[0] 7.33594e-05
3 *400:9 0.00113855
4 *400:7 0.0017029
5 *400:7 wbs_dat_o[29] 0
6 *400:9 *439:9 0.000169628
7 *400:9 *632:11 0.00351788
8 *646:io_la_data_in[0] *400:9 0.000500131
9 *205:9 *400:9 0.000310998
10 *311:9 *400:9 0.004114
11 *333:11 *400:9 0.000695517
*RES
1 la_oenb[0] *400:7 28.2779 
2 *400:7 *400:9 56.6018 
3 *400:9 *646:io_la_oenb[0] 15.9529 
*END

*D_NET *401 0.00886531
*CONN
*P la_oenb[100] I
*I *646:io_la_oenb[100] I *D CaravelTopLevel
*CAP
1 la_oenb[100] 5.73126e-05
2 *646:io_la_oenb[100] 0.000842661
3 *401:9 0.00372084
4 *401:7 0.0029355
5 *646:io_la_oenb[100] *524:11 4.46237e-05
6 *401:9 *403:11 0.000163277
7 *401:9 *404:13 0.000353568
8 *401:9 *524:11 0.000104076
9 *401:9 *525:15 0
10 *401:9 *526:11 0
11 la_data_out[99] *401:9 0.000338123
12 *646:io_la_data_in[101] *401:9 0.000129906
13 *646:io_la_data_in[104] *401:9 0.000128445
14 *275:11 *401:9 0
15 *277:9 *401:7 4.69729e-05
*RES
1 la_oenb[100] *401:7 16.305 
2 *401:7 *401:9 63.7482 
3 *401:9 *646:io_la_oenb[100] 31.9029 
*END

*D_NET *402 0.0167556
*CONN
*P la_oenb[101] I
*I *646:io_la_oenb[101] I *D CaravelTopLevel
*CAP
1 la_oenb[101] 0.0033749
2 *646:io_la_oenb[101] 0.0033749
3 *646:io_la_oenb[101] *403:11 0.000145535
4 *646:io_la_oenb[101] *404:13 0.000176174
5 *646:io_la_oenb[101] *525:15 0.000153144
6 *646:io_la_oenb[101] *526:11 0.00103466
7 la_data_out[101] *646:io_la_oenb[101] 0.00558568
8 la_data_out[98] *646:io_la_oenb[101] 0.000525317
9 *646:io_la_data_in[104] *646:io_la_oenb[101] 2.94387e-06
10 *646:io_la_data_in[105] *646:io_la_oenb[101] 0.000302695
11 *275:11 *646:io_la_oenb[101] 0.00122172
12 *277:11 *646:io_la_oenb[101] 0.0008579
*RES
1 la_oenb[101] *646:io_la_oenb[101] 46.3102 
*END

*D_NET *403 0.0155037
*CONN
*P la_oenb[102] I
*I *646:io_la_oenb[102] I *D CaravelTopLevel
*CAP
1 la_oenb[102] 0.000108639
2 *646:io_la_oenb[102] 0.000778509
3 *403:11 0.00180643
4 *403:9 0.00113656
5 *403:11 *404:11 1.14219e-05
6 *403:11 *404:13 0.00461237
7 la_data_out[101] *403:11 0.000600527
8 *646:io_la_data_in[105] *403:11 0.000117548
9 *646:io_la_data_in[106] *403:11 0.00010258
10 *646:io_la_data_in[99] *646:io_la_oenb[102] 2.56825e-05
11 *646:io_la_oenb[101] *403:11 0.000145535
12 *275:11 *403:11 0.00559762
13 *277:11 *403:11 0.000297027
14 *401:9 *403:11 0.000163277
*RES
1 la_oenb[102] *403:9 16.3464 
2 *403:9 *403:11 66.845 
3 *403:11 *646:io_la_oenb[102] 31.4989 
*END

*D_NET *404 0.0121764
*CONN
*P la_oenb[103] I
*I *646:io_la_oenb[103] I *D CaravelTopLevel
*CAP
1 la_oenb[103] 0.00106928
2 *646:io_la_oenb[103] 0.000717907
3 *404:13 0.00208606
4 *404:11 0.00243743
5 *404:11 *646:io_la_oenb[107] 2.30672e-05
6 *404:11 *406:13 0
7 la_data_out[101] *404:13 0.000130115
8 la_data_out[103] *646:io_la_oenb[103] 0
9 *646:io_la_data_in[100] *646:io_la_oenb[103] 0
10 *646:io_la_data_in[101] *404:13 0.000151983
11 *646:io_la_data_in[105] *404:11 0.000104089
12 *646:io_la_data_in[105] *404:13 0.00013288
13 *646:io_la_data_in[106] *404:13 0.000118429
14 *646:io_la_oenb[101] *404:13 0.000176174
15 *277:11 *404:11 0
16 *280:11 *404:11 5.15993e-05
17 *401:9 *404:13 0.000353568
18 *403:11 *404:11 1.14219e-05
19 *403:11 *404:13 0.00461237
*RES
1 la_oenb[103] *404:11 36.8225 
2 *404:11 *404:13 50.4082 
3 *404:13 *646:io_la_oenb[103] 29.7175 
*END

*D_NET *405 0.010492
*CONN
*P la_oenb[104] I
*I *646:io_la_oenb[104] I *D CaravelTopLevel
*CAP
1 la_oenb[104] 0.00033745
2 *646:io_la_oenb[104] 0.000482208
3 *405:19 0.00186961
4 *405:15 0.00253001
5 *405:11 0.00148005
6 *405:15 *406:13 0.000354477
7 *405:15 *409:13 5.50049e-05
8 *405:19 *406:13 0.000504627
9 la_data_out[105] *405:15 0.000212411
10 *152:13 *405:15 0.00266616
*RES
1 la_oenb[104] *405:11 21.5457 
2 *405:11 *405:15 36.6125 
3 *405:15 *405:19 46.3511 
4 *405:19 *646:io_la_oenb[104] 10.8646 
*END

*D_NET *406 0.0127077
*CONN
*P la_oenb[105] I
*I *646:io_la_oenb[105] I *D CaravelTopLevel
*CAP
1 la_oenb[105] 0.000157228
2 *646:io_la_oenb[105] 0.000518854
3 *406:13 0.0027964
4 *406:11 0.00243477
5 *406:11 *646:io_la_oenb[109] 0.000270509
6 la_data_out[105] *406:13 0.00126921
7 *646:io_la_data_in[102] *646:io_la_oenb[105] 0
8 *152:13 *406:13 0.00440162
9 *404:11 *406:13 0
10 *405:15 *406:13 0.000354477
11 *405:19 *406:13 0.000504627
*RES
1 la_oenb[105] *406:11 19.8886 
2 *406:11 *406:13 69.7036 
3 *406:13 *646:io_la_oenb[105] 26.4446 
*END

*D_NET *407 0.0166754
*CONN
*P la_oenb[106] I
*I *646:io_la_oenb[106] I *D CaravelTopLevel
*CAP
1 la_oenb[106] 0.00336328
2 *646:io_la_oenb[106] 0.00336328
3 *646:io_la_oenb[106] *408:11 0.00138957
4 *646:io_la_oenb[106] *410:11 0.000967724
5 la_data_out[106] *646:io_la_oenb[106] 0.00650981
6 *646:io_la_data_in[107] *646:io_la_oenb[106] 0
7 *277:11 *646:io_la_oenb[106] 0.00108169
*RES
1 la_oenb[106] *646:io_la_oenb[106] 47.8642 
*END

*D_NET *408 0.0164688
*CONN
*P la_oenb[107] I
*I *646:io_la_oenb[107] I *D CaravelTopLevel
*CAP
1 la_oenb[107] 0.000174662
2 *646:io_la_oenb[107] 0.000824214
3 *408:11 0.00215387
4 *408:9 0.00150431
5 *408:11 *410:11 0.0032791
6 *646:io_la_data_in[111] *408:11 0.000170495
7 *646:io_la_oenb[106] *408:11 0.00138957
8 *277:11 *408:11 0.000837546
9 *280:11 *408:11 0.00611192
10 *404:11 *646:io_la_oenb[107] 2.30672e-05
*RES
1 la_oenb[107] *408:9 17.2993 
2 *408:9 *408:11 70.18 
3 *408:11 *646:io_la_oenb[107] 31.8511 
*END

*D_NET *409 0.0127826
*CONN
*P la_oenb[108] I
*I *646:io_la_oenb[108] I *D CaravelTopLevel
*CAP
1 la_oenb[108] 0.000359154
2 *646:io_la_oenb[108] 0.00044101
3 *409:13 0.0027683
4 *409:11 0.00268645
5 *409:11 *646:io_la_oenb[112] 0
6 la_data_out[108] *646:io_la_oenb[108] 0
7 *152:13 *409:13 0.000337479
8 *154:9 *409:11 0
9 *154:11 *409:13 0.0061352
10 *405:15 *409:13 5.50049e-05
*RES
1 la_oenb[108] *409:11 21.4214 
2 *409:11 *409:13 74.4679 
3 *409:13 *646:io_la_oenb[108] 24.4354 
*END

*D_NET *410 0.0144177
*CONN
*P la_oenb[109] I
*I *646:io_la_oenb[109] I *D CaravelTopLevel
*CAP
1 la_oenb[109] 0.000112334
2 *646:io_la_oenb[109] 0.000807701
3 *410:11 0.00374612
4 *410:9 0.00305075
5 *646:io_la_data_in[111] *410:11 0.00218346
6 *646:io_la_oenb[106] *410:11 0.000967724
7 *406:11 *646:io_la_oenb[109] 0.000270509
8 *408:11 *410:11 0.0032791
*RES
1 la_oenb[109] *410:9 16.3464 
2 *410:9 *410:11 75.4207 
3 *410:11 *646:io_la_oenb[109] 32.2032 
*END

*D_NET *411 0.00923039
*CONN
*P la_oenb[10] I
*I *646:io_la_oenb[10] I *D CaravelTopLevel
*CAP
1 la_oenb[10] 0.00218839
2 *646:io_la_oenb[10] 0.00218839
3 *646:io_la_oenb[10] *646:io_la_oenb[11] 0.00232653
4 *646:io_la_oenb[10] *646:io_la_oenb[8] 0.000606901
5 *646:io_la_oenb[10] *646:io_la_oenb[9] 0.000340707
6 la_data_out[11] *646:io_la_oenb[10] 0.00148239
7 *646:io_la_data_in[11] *646:io_la_oenb[10] 0
8 *646:io_la_data_in[13] *646:io_la_oenb[10] 9.70822e-05
*RES
1 la_oenb[10] *646:io_la_oenb[10] 40.8362 
*END

*D_NET *412 0.014731
*CONN
*P la_oenb[110] I
*I *646:io_la_oenb[110] I *D CaravelTopLevel
*CAP
1 la_oenb[110] 0.000325193
2 *646:io_la_oenb[110] 0.000588562
3 *412:11 0.00205535
4 *412:9 0.00179198
5 *412:11 *413:11 0.00509564
6 *412:11 *414:13 0.00353336
7 *152:13 *412:11 0.000393325
8 *154:11 *412:11 0.000947615
*RES
1 la_oenb[110] *412:9 21.7736 
2 *412:9 *412:11 73.515 
3 *412:11 *646:io_la_oenb[110] 26.7968 
*END

*D_NET *413 0.0170456
*CONN
*P la_oenb[111] I
*I *646:io_la_oenb[111] I *D CaravelTopLevel
*CAP
1 la_oenb[111] 0.000356551
2 *646:io_la_oenb[111] 0.000623697
3 *413:11 0.00169269
4 *413:9 0.00142554
5 *413:11 *414:13 0.000263217
6 *646:io_la_data_in[112] *646:io_la_oenb[111] 0
7 *158:9 *413:11 0.00640138
8 *289:11 *413:11 0.00118684
9 *412:11 *413:11 0.00509564
*RES
1 la_oenb[111] *413:9 21.4214 
2 *413:9 *413:11 73.9914 
3 *413:11 *646:io_la_oenb[111] 27.6254 
*END

*D_NET *414 0.016617
*CONN
*P la_oenb[112] I
*I *646:io_la_oenb[112] I *D CaravelTopLevel
*CAP
1 la_oenb[112] 0.000225818
2 *646:io_la_oenb[112] 0.000529618
3 *414:13 0.00169435
4 *414:11 0.00139055
5 *414:13 *415:11 0.000688298
6 la_data_out[108] *646:io_la_oenb[112] 0.000111605
7 *154:11 *414:13 0.000442833
8 *287:11 *414:13 0.000138889
9 *288:11 *414:13 0.00449513
10 *289:11 *414:13 0.00310336
11 *409:11 *646:io_la_oenb[112] 0
12 *412:11 *414:13 0.00353336
13 *413:11 *414:13 0.000263217
*RES
1 la_oenb[112] *414:11 19.8886 
2 *414:11 *414:13 77.8029 
3 *414:13 *646:io_la_oenb[112] 26.9211 
*END

*D_NET *415 0.0176959
*CONN
*P la_oenb[113] I
*I *646:io_la_oenb[113] I *D CaravelTopLevel
*CAP
1 la_oenb[113] 0.000431087
2 *646:io_la_oenb[113] 0.000442028
3 *415:11 0.00163198
4 *415:9 0.00162104
5 la_data_out[109] *646:io_la_oenb[113] 8.27008e-05
6 la_data_out[113] *415:9 0
7 *287:9 *646:io_la_oenb[113] 0
8 *287:11 *415:11 0.00678936
9 *288:11 *415:11 0.00600942
10 *414:13 *415:11 0.000688298
*RES
1 la_oenb[113] *415:9 22.3536 
2 *415:9 *415:11 79.2321 
3 *415:11 *646:io_la_oenb[113] 24.7875 
*END

*D_NET *416 0.0164424
*CONN
*P la_oenb[114] I
*I *646:io_la_oenb[114] I *D CaravelTopLevel
*CAP
1 la_oenb[114] 0.00362482
2 *646:io_la_oenb[114] 0.00362482
3 la_data_out[110] *646:io_la_oenb[114] 0
4 la_data_out[112] *646:io_la_oenb[114] 0.00370909
5 la_data_out[119] *646:io_la_oenb[114] 0.000427482
6 *646:io_la_data_in[110] *646:io_la_oenb[114] 0
7 *646:io_la_data_in[113] *646:io_la_oenb[114] 0.0022359
8 *646:io_la_data_in[114] *646:io_la_oenb[114] 2.46318e-06
9 *646:io_la_data_in[115] *646:io_la_oenb[114] 0.000665285
10 *646:io_la_data_in[117] *646:io_la_oenb[114] 0.00215249
*RES
1 la_oenb[114] *646:io_la_oenb[114] 45.0987 
*END

*D_NET *417 0.0134835
*CONN
*P la_oenb[115] I
*I *646:io_la_oenb[115] I *D CaravelTopLevel
*CAP
1 la_oenb[115] 0.000120926
2 *646:io_la_oenb[115] 0.000825055
3 *417:11 0.00360285
4 *417:9 0.00289872
5 *417:11 *418:11 0.00603593
6 la_data_out[111] *646:io_la_oenb[115] 0
*RES
1 la_oenb[115] *417:9 16.3464 
2 *417:9 *417:11 83.52 
3 *417:11 *646:io_la_oenb[115] 31.3746 
*END

*D_NET *418 0.0135925
*CONN
*P la_oenb[116] I
*I *646:io_la_oenb[116] I *D CaravelTopLevel
*CAP
1 la_oenb[116] 0.000107602
2 *646:io_la_oenb[116] 0.000876368
3 *418:11 0.00367069
4 *418:9 0.00290192
5 la_data_out[112] *646:io_la_oenb[116] 0
6 *646:io_la_data_in[117] *646:io_la_oenb[116] 0
7 *158:7 *646:io_la_oenb[116] 0
8 *417:11 *418:11 0.00603593
*RES
1 la_oenb[116] *418:9 16.3464 
2 *418:9 *418:11 83.9964 
3 *418:11 *646:io_la_oenb[116] 32.2032 
*END

*D_NET *419 0.0169918
*CONN
*P la_oenb[117] I
*I *646:io_la_oenb[117] I *D CaravelTopLevel
*CAP
1 la_oenb[117] 0.000194664
2 *646:io_la_oenb[117] 0.000624688
3 *419:13 0.0020774
4 *419:11 0.00164738
5 *419:11 *646:io_la_oenb[122] 9.33529e-06
6 *646:io_la_data_in[113] *646:io_la_oenb[117] 7.36502e-05
7 *289:11 *419:13 0.0035709
8 *291:11 *419:13 0.00193774
9 *292:11 *419:13 0.00660891
10 *295:11 *419:13 0.000247153
*RES
1 la_oenb[117] *419:11 19.1843 
2 *419:11 *419:13 83.9964 
3 *419:13 *646:io_la_oenb[117] 27.6254 
*END

*D_NET *420 0.0168608
*CONN
*P la_oenb[118] I
*I *646:io_la_oenb[118] I *D CaravelTopLevel
*CAP
1 la_oenb[118] 0.000358585
2 *646:io_la_oenb[118] 0.000433729
3 *420:11 0.00222064
4 *420:9 0.0021455
5 *420:9 *646:io_la_oenb[123] 0.000146206
6 *420:11 *423:13 0.00449268
7 *646:io_la_data_in[114] *646:io_la_oenb[118] 0.000145154
8 *288:11 *420:11 0.00070452
9 *291:11 *420:11 0.00107068
10 *292:9 *646:io_la_oenb[118] 0
11 *295:11 *420:11 0.0051431
*RES
1 la_oenb[118] *420:9 22.3536 
2 *420:9 *420:11 84.9493 
3 *420:11 *646:io_la_oenb[118] 24.7875 
*END

*D_NET *421 0.0162723
*CONN
*P la_oenb[119] I
*I *646:io_la_oenb[119] I *D CaravelTopLevel
*CAP
1 la_oenb[119] 0.00412022
2 *646:io_la_oenb[119] 0.00412022
3 *646:io_la_oenb[119] *646:io_la_oenb[124] 0.000266053
4 *646:io_la_oenb[119] *424:11 0.000158252
5 *646:io_la_data_in[115] *646:io_la_oenb[119] 7.9489e-05
6 *646:io_la_data_in[117] *646:io_la_oenb[119] 0.00143935
7 *646:io_la_data_in[119] *646:io_la_oenb[119] 0.000511041
8 *646:io_la_data_in[122] *646:io_la_oenb[119] 0.0045427
9 *646:io_la_data_in[123] *646:io_la_oenb[119] 0.000511529
10 *646:io_la_data_in[124] *646:io_la_oenb[119] 0.000523427
*RES
1 la_oenb[119] *646:io_la_oenb[119] 46.1425 
*END

*D_NET *422 0.00791433
*CONN
*P la_oenb[11] I
*I *646:io_la_oenb[11] I *D CaravelTopLevel
*CAP
1 la_oenb[11] 0.00244799
2 *646:io_la_oenb[11] 0.00244799
3 la_data_out[11] *646:io_la_oenb[11] 0.000347653
4 *646:io_la_data_in[12] *646:io_la_oenb[11] 0.000166209
5 *646:io_la_data_in[14] *646:io_la_oenb[11] 0.000177955
6 *646:io_la_oenb[10] *646:io_la_oenb[11] 0.00232653
*RES
1 la_oenb[11] *646:io_la_oenb[11] 42.6854 
*END

*D_NET *423 0.013747
*CONN
*P la_oenb[120] I
*I *646:io_la_oenb[120] I *D CaravelTopLevel
*CAP
1 la_oenb[120] 0.000285552
2 *646:io_la_oenb[120] 0.000542
3 *423:13 0.00346958
4 *423:11 0.00321313
5 *423:13 *428:17 4.30264e-05
6 *646:io_la_data_in[116] *646:io_la_oenb[120] 0
7 *646:io_la_data_in[126] *423:11 0
8 *295:11 *423:13 0.00170101
9 *420:11 *423:13 0.00449268
*RES
1 la_oenb[120] *423:11 20.945 
2 *423:11 *423:13 87.8079 
3 *423:13 *646:io_la_oenb[120] 25.3882 
*END

*D_NET *424 0.0166226
*CONN
*P la_oenb[121] I
*I *646:io_la_oenb[121] I *D CaravelTopLevel
*CAP
1 la_oenb[121] 0.00439917
2 *646:io_la_oenb[121] 0
3 *424:11 0.00439917
4 *424:11 *646:io_la_oenb[126] 6.9721e-05
5 la_data_out[121] *424:11 0
6 *646:io_la_data_in[122] *424:11 0.000263957
7 *646:io_la_data_in[127] *424:11 0
8 *646:io_la_oenb[119] *424:11 0.000158252
9 *297:14 *424:11 0.00733235
*RES
1 la_oenb[121] *424:11 42.3919 
2 *424:11 *646:io_la_oenb[121] 8 
*END

*D_NET *425 0.0106095
*CONN
*P la_oenb[122] I
*I *646:io_la_oenb[122] I *D CaravelTopLevel
*CAP
1 la_oenb[122] 6.49993e-05
2 *646:io_la_oenb[122] 0.000756398
3 *425:9 0.00479938
4 *425:7 0.00410799
5 *425:9 *426:11 0.000762903
6 *425:9 *428:17 0
7 *646:io_la_data_in[118] *646:io_la_oenb[122] 0
8 *292:11 *425:9 0.000108481
9 *295:11 *425:9 0
10 *419:11 *646:io_la_oenb[122] 9.33529e-06
*RES
1 la_oenb[122] *425:7 16.305 
2 *425:7 *425:9 90.19 
3 *425:9 *646:io_la_oenb[122] 29.7382 
*END

*D_NET *426 0.0154545
*CONN
*P la_oenb[123] I
*I *646:io_la_oenb[123] I *D CaravelTopLevel
*CAP
1 la_oenb[123] 0.000153653
2 *646:io_la_oenb[123] 0.00076277
3 *426:11 0.00372947
4 *426:9 0.00312035
5 la_data_out[123] *646:io_la_oenb[123] 0
6 *300:11 *426:11 0.00603614
7 *301:11 *426:11 0.000742978
8 *420:9 *646:io_la_oenb[123] 0.000146206
9 *425:9 *426:11 0.000762903
*RES
1 la_oenb[123] *426:9 16.3464 
2 *426:9 *426:11 94.4779 
3 *426:11 *646:io_la_oenb[123] 30.2146 
*END

*D_NET *427 0.0226815
*CONN
*P la_oenb[124] I
*I *646:io_la_oenb[124] I *D CaravelTopLevel
*CAP
1 la_oenb[124] 0.00290117
2 *646:io_la_oenb[124] 0.00290117
3 *646:io_la_oenb[124] *646:io_la_oenb[126] 0.0001619
4 la_data_out[124] *646:io_la_oenb[124] 0.000221319
5 *646:io_la_data_in[122] *646:io_la_oenb[124] 0.000131533
6 *646:io_la_data_in[124] *646:io_la_oenb[124] 0.00772886
7 *646:io_la_data_in[125] *646:io_la_oenb[124] 0.0083695
8 *646:io_la_oenb[119] *646:io_la_oenb[124] 0.000266053
*RES
1 la_oenb[124] *646:io_la_oenb[124] 47.3312 
*END

*D_NET *428 0.0149426
*CONN
*P la_oenb[125] I
*I *646:io_la_oenb[125] I *D CaravelTopLevel
*CAP
1 la_oenb[125] 0.000657916
2 *646:io_la_oenb[125] 0.000623182
3 *428:17 0.00319018
4 *428:15 0.00297337
5 *428:11 0.00177531
6 *428:7 0.00202685
7 la_data_out[120] *646:io_la_oenb[125] 0
8 *646:io_la_data_in[124] *428:15 0.000330374
9 *302:11 *428:17 0.00332243
10 *302:17 *428:7 0
11 *423:13 *428:17 4.30264e-05
12 *425:9 *428:17 0
*RES
1 la_oenb[125] *428:7 27.9257 
2 *428:7 *428:11 44.6836 
3 *428:11 *428:15 24.3007 
4 *428:15 *428:17 64.9393 
5 *428:17 *646:io_la_oenb[125] 26.7968 
*END

*D_NET *429 0.0204183
*CONN
*P la_oenb[126] I
*I *646:io_la_oenb[126] I *D CaravelTopLevel
*CAP
1 la_oenb[126] 0.00330087
2 *646:io_la_oenb[126] 0.00330087
3 *646:io_la_oenb[126] *646:io_la_oenb[127] 0.00761992
4 la_data_out[123] *646:io_la_oenb[126] 0.000100694
5 la_data_out[124] *646:io_la_oenb[126] 0.00506871
6 *646:io_la_data_in[125] *646:io_la_oenb[126] 8.69328e-05
7 *646:io_la_data_in[127] *646:io_la_oenb[126] 0.000708694
8 *646:io_la_oenb[124] *646:io_la_oenb[126] 0.0001619
9 *424:11 *646:io_la_oenb[126] 6.9721e-05
*RES
1 la_oenb[126] *646:io_la_oenb[126] 49.2725 
*END

*D_NET *430 0.0223187
*CONN
*P la_oenb[127] I
*I *646:io_la_oenb[127] I *D CaravelTopLevel
*CAP
1 la_oenb[127] 0.00293395
2 *646:io_la_oenb[127] 0.00293395
3 *646:io_la_oenb[127] user_irq[2] 0.000596403
4 *646:io_la_data_in[127] *646:io_la_oenb[127] 0.00823446
5 *646:io_la_oenb[126] *646:io_la_oenb[127] 0.00761992
6 *297:14 *646:io_la_oenb[127] 0
*RES
1 la_oenb[127] *646:io_la_oenb[127] 49.4443 
*END

*D_NET *431 0.0100057
*CONN
*P la_oenb[12] I
*I *646:io_la_oenb[12] I *D CaravelTopLevel
*CAP
1 la_oenb[12] 0.00162322
2 *646:io_la_oenb[12] 0.00162322
3 la_data_out[12] *646:io_la_oenb[12] 0.000315475
4 la_data_out[14] *646:io_la_oenb[12] 0.000325673
5 *646:io_la_data_in[12] *646:io_la_oenb[12] 0.00279376
6 *646:io_la_data_in[13] *646:io_la_oenb[12] 0.00332436
*RES
1 la_oenb[12] *646:io_la_oenb[12] 39.312 
*END

*D_NET *432 0.00997694
*CONN
*P la_oenb[13] I
*I *646:io_la_oenb[13] I *D CaravelTopLevel
*CAP
1 la_oenb[13] 0.00140431
2 *646:io_la_oenb[13] 0.00140431
3 *646:io_la_oenb[13] *646:io_la_oenb[14] 0.00204623
4 la_data_out[11] *646:io_la_oenb[13] 0.000124484
5 la_data_out[12] *646:io_la_oenb[13] 0.00162049
6 la_data_out[13] *646:io_la_oenb[13] 0
7 *646:io_la_data_in[13] *646:io_la_oenb[13] 0.000111764
8 *646:io_la_data_in[14] *646:io_la_oenb[13] 0.00326536
9 *646:io_la_data_in[16] *646:io_la_oenb[13] 0
*RES
1 la_oenb[13] *646:io_la_oenb[13] 39.1403 
*END

*D_NET *433 0.00867087
*CONN
*P la_oenb[14] I
*I *646:io_la_oenb[14] I *D CaravelTopLevel
*CAP
1 la_oenb[14] 0.00155068
2 *646:io_la_oenb[14] 0.00155068
3 *646:io_la_oenb[14] *646:io_la_oenb[15] 0.000146532
4 *646:io_la_oenb[14] *646:io_la_oenb[16] 5.11247e-05
5 la_data_out[15] *646:io_la_oenb[14] 0.00132197
6 la_data_out[16] *646:io_la_oenb[14] 0.000725451
7 *646:io_la_data_in[13] *646:io_la_oenb[14] 0.000922439
8 *646:io_la_data_in[14] *646:io_la_oenb[14] 0.000268543
9 *646:io_la_data_in[15] *646:io_la_oenb[14] 8.722e-05
10 *646:io_la_oenb[13] *646:io_la_oenb[14] 0.00204623
*RES
1 la_oenb[14] *646:io_la_oenb[14] 38.8827 
*END

*D_NET *434 0.00916203
*CONN
*P la_oenb[15] I
*I *646:io_la_oenb[15] I *D CaravelTopLevel
*CAP
1 la_oenb[15] 0.00155059
2 *646:io_la_oenb[15] 0.00155059
3 *646:io_la_oenb[15] *646:io_la_oenb[16] 0.00181328
4 la_data_out[16] *646:io_la_oenb[15] 0.000328121
5 *646:io_la_data_in[14] *646:io_la_oenb[15] 0.000737491
6 *646:io_la_data_in[16] *646:io_la_oenb[15] 0.00303542
7 *646:io_la_oenb[14] *646:io_la_oenb[15] 0.000146532
*RES
1 la_oenb[15] *646:io_la_oenb[15] 38.6251 
*END

*D_NET *435 0.00849758
*CONN
*P la_oenb[16] I
*I *646:io_la_oenb[16] I *D CaravelTopLevel
*CAP
1 la_oenb[16] 0.00153509
2 *646:io_la_oenb[16] 0.00153509
3 *646:io_la_oenb[16] *646:io_la_oenb[18] 3.17777e-05
4 la_data_out[14] *646:io_la_oenb[16] 0
5 la_data_out[16] *646:io_la_oenb[16] 0.00290992
6 *646:io_la_data_in[16] *646:io_la_oenb[16] 0.000284999
7 *646:io_la_data_in[17] *646:io_la_oenb[16] 0.000336306
8 *646:io_la_oenb[14] *646:io_la_oenb[16] 5.11247e-05
9 *646:io_la_oenb[15] *646:io_la_oenb[16] 0.00181328
*RES
1 la_oenb[16] *646:io_la_oenb[16] 38.0628 
*END

*D_NET *436 0.00723182
*CONN
*P la_oenb[17] I
*I *646:io_la_oenb[17] I *D CaravelTopLevel
*CAP
1 la_oenb[17] 0.00218475
2 *646:io_la_oenb[17] 0.00218475
3 *646:io_la_oenb[17] *646:io_la_oenb[19] 0
4 la_data_out[17] *646:io_la_oenb[17] 6.01326e-05
5 la_data_out[19] *646:io_la_oenb[17] 0
6 *646:io_la_data_in[18] *646:io_la_oenb[17] 0.0028022
*RES
1 la_oenb[17] *646:io_la_oenb[17] 40.1486 
*END

*D_NET *437 0.00820486
*CONN
*P la_oenb[18] I
*I *646:io_la_oenb[18] I *D CaravelTopLevel
*CAP
1 la_oenb[18] 0.00177727
2 *646:io_la_oenb[18] 0.00177727
3 *646:io_la_oenb[18] *646:io_la_oenb[19] 0.00139042
4 *646:io_la_oenb[18] *646:io_la_oenb[20] 0
5 la_data_out[17] *646:io_la_oenb[18] 0.000114077
6 la_data_out[18] *646:io_la_oenb[18] 3.9211e-05
7 la_data_out[19] *646:io_la_oenb[18] 0.000328121
8 la_data_out[20] *646:io_la_oenb[18] 0
9 *646:io_la_data_in[17] *646:io_la_oenb[18] 0.000159804
10 *646:io_la_data_in[19] *646:io_la_oenb[18] 0.0025869
11 *646:io_la_oenb[16] *646:io_la_oenb[18] 3.17777e-05
*RES
1 la_oenb[18] *646:io_la_oenb[18] 38.024 
*END

*D_NET *438 0.00767585
*CONN
*P la_oenb[19] I
*I *646:io_la_oenb[19] I *D CaravelTopLevel
*CAP
1 la_oenb[19] 0.00154486
2 *646:io_la_oenb[19] 0.00154486
3 *646:io_la_oenb[19] *646:io_la_oenb[20] 7.57457e-05
4 la_data_out[19] *646:io_la_oenb[19] 0.00251443
5 la_data_out[21] *646:io_la_oenb[19] 0.000127181
6 *646:io_la_data_in[18] *646:io_la_oenb[19] 0
7 *646:io_la_data_in[19] *646:io_la_oenb[19] 0.000306344
8 *646:io_la_data_in[20] *646:io_la_oenb[19] 0
9 *646:io_la_data_in[21] *646:io_la_oenb[19] 0.000172002
10 *646:io_la_oenb[17] *646:io_la_oenb[19] 0
11 *646:io_la_oenb[18] *646:io_la_oenb[19] 0.00139042
*RES
1 la_oenb[19] *646:io_la_oenb[19] 37.7664 
*END

*D_NET *439 0.0107392
*CONN
*P la_oenb[1] I
*I *646:io_la_oenb[1] I *D CaravelTopLevel
*CAP
1 la_oenb[1] 0.00070863
2 *646:io_la_oenb[1] 0.000104452
3 *439:9 0.00171521
4 *439:7 0.00231939
5 *439:9 *646:io_wbs_adr_i[31] 0.000101159
6 *439:9 *646:io_wbs_dat_i[31] 0.000101159
7 *439:9 *600:11 0.00125397
8 *439:9 *631:11 0.000189689
9 *439:9 *632:9 0.000101159
10 *439:9 *632:11 0.00029706
11 *646:io_la_data_in[1] *439:9 0.000878149
12 *205:9 *439:9 0.00279957
13 *400:9 *439:9 0.000169628
*RES
1 la_oenb[1] *439:7 29.3343 
2 *439:7 *439:9 54.4579 
3 *439:9 *646:io_la_oenb[1] 16.1082 
*END

*D_NET *440 0.00693069
*CONN
*P la_oenb[20] I
*I *646:io_la_oenb[20] I *D CaravelTopLevel
*CAP
1 la_oenb[20] 0.00146477
2 *646:io_la_oenb[20] 0.00146477
3 la_data_out[20] *646:io_la_oenb[20] 0.00133825
4 *646:io_la_data_in[19] *646:io_la_oenb[20] 7.87639e-05
5 *646:io_la_data_in[21] *646:io_la_oenb[20] 0.00238859
6 *646:io_la_data_in[22] *646:io_la_oenb[20] 0.000119789
7 *646:io_la_oenb[18] *646:io_la_oenb[20] 0
8 *646:io_la_oenb[19] *646:io_la_oenb[20] 7.57457e-05
*RES
1 la_oenb[20] *646:io_la_oenb[20] 37.5947 
*END

*D_NET *441 0.00607077
*CONN
*P la_oenb[21] I
*I *646:io_la_oenb[21] I *D CaravelTopLevel
*CAP
1 la_oenb[21] 0.00191303
2 *646:io_la_oenb[21] 0.00191303
3 *646:io_la_oenb[21] *646:io_la_oenb[22] 0.00112099
4 la_data_out[21] *646:io_la_oenb[21] 0.000403074
5 la_data_out[22] *646:io_la_oenb[21] 0.000306344
6 la_data_out[23] *646:io_la_oenb[21] 0.000208497
7 *646:io_la_data_in[20] *646:io_la_oenb[21] 0.000205806
*RES
1 la_oenb[21] *646:io_la_oenb[21] 36.9465 
*END

*D_NET *442 0.00688284
*CONN
*P la_oenb[22] I
*I *646:io_la_oenb[22] I *D CaravelTopLevel
*CAP
1 la_oenb[22] 0.0015821
2 *646:io_la_oenb[22] 0.0015821
3 la_data_out[22] *646:io_la_oenb[22] 0.00219975
4 la_data_out[24] *646:io_la_oenb[22] 0
5 *646:io_la_data_in[23] *646:io_la_oenb[22] 3.9211e-05
6 *646:io_la_data_in[24] *646:io_la_oenb[22] 0.000358698
7 *646:io_la_oenb[21] *646:io_la_oenb[22] 0.00112099
*RES
1 la_oenb[22] *646:io_la_oenb[22] 37.1653 
*END

*D_NET *443 0.00670529
*CONN
*P la_oenb[23] I
*I *646:io_la_oenb[23] I *D CaravelTopLevel
*CAP
1 la_oenb[23] 0.0012049
2 *646:io_la_oenb[23] 0.0012049
3 la_data_out[22] *646:io_la_oenb[23] 0
4 la_data_out[23] *646:io_la_oenb[23] 0.00214458
5 la_data_out[24] *646:io_la_oenb[23] 0.000620873
6 *646:io_la_data_in[23] *646:io_la_oenb[23] 0.00153003
*RES
1 la_oenb[23] *646:io_la_oenb[23] 36.9077 
*END

*D_NET *444 0.00683804
*CONN
*P la_oenb[24] I
*I *646:io_la_oenb[24] I *D CaravelTopLevel
*CAP
1 la_oenb[24] 0.0012501
2 *646:io_la_oenb[24] 0.0012501
3 la_data_out[24] *646:io_la_oenb[24] 0.00196366
4 *646:io_la_data_in[24] *646:io_la_oenb[24] 0.000306344
5 *646:io_la_data_in[25] *646:io_la_oenb[24] 0.00192932
6 *646:io_la_data_in[26] *646:io_la_oenb[24] 0.000138518
*RES
1 la_oenb[24] *646:io_la_oenb[24] 36.6501 
*END

*D_NET *445 0.00649671
*CONN
*P la_oenb[25] I
*I *646:io_la_oenb[25] I *D CaravelTopLevel
*CAP
1 la_oenb[25] 0.00142038
2 *646:io_la_oenb[25] 0.00142038
3 la_data_out[25] *646:io_la_oenb[25] 0.00181628
4 *646:io_la_data_in[25] *646:io_la_oenb[25] 0.0013472
5 *646:io_la_data_in[26] *646:io_la_oenb[25] 0.000361441
6 *646:io_la_data_in[27] *646:io_la_oenb[25] 0.00013102
*RES
1 la_oenb[25] *646:io_la_oenb[25] 36.4784 
*END

*D_NET *446 0.00572559
*CONN
*P la_oenb[26] I
*I *646:io_la_oenb[26] I *D CaravelTopLevel
*CAP
1 la_oenb[26] 0.00173092
2 *646:io_la_oenb[26] 0.00173092
3 la_data_out[25] *646:io_la_oenb[26] 0.000189854
4 la_data_out[26] *646:io_la_oenb[26] 0.000296224
5 *646:io_la_data_in[25] *646:io_la_oenb[26] 0
6 *646:io_la_data_in[27] *646:io_la_oenb[26] 0.00177767
*RES
1 la_oenb[26] *646:io_la_oenb[26] 38.3397 
*END

*D_NET *447 0.00581035
*CONN
*P la_oenb[27] I
*I *646:io_la_oenb[27] I *D CaravelTopLevel
*CAP
1 la_oenb[27] 0.00129551
2 *646:io_la_oenb[27] 0.00129551
3 *646:io_la_oenb[27] *646:io_la_oenb[28] 0.000358698
4 la_data_out[27] *646:io_la_oenb[27] 0.0016008
5 la_data_out[28] *646:io_la_oenb[27] 0.000969767
6 *646:io_la_data_in[28] *646:io_la_oenb[27] 0.000290059
7 *646:io_la_data_in[29] *646:io_la_oenb[27] 0
*RES
1 la_oenb[27] *646:io_la_oenb[27] 36.0491 
*END

*D_NET *448 0.004936
*CONN
*P la_oenb[28] I
*I *646:io_la_oenb[28] I *D CaravelTopLevel
*CAP
1 la_oenb[28] 0.0014089
2 *646:io_la_oenb[28] 0.0014089
3 la_data_out[28] *646:io_la_oenb[28] 0.000397845
4 la_data_out[29] *646:io_la_oenb[28] 0.00087511
5 *646:io_la_data_in[29] *646:io_la_oenb[28] 0.000486545
6 *646:io_la_oenb[27] *646:io_la_oenb[28] 0.000358698
*RES
1 la_oenb[28] *646:io_la_oenb[28] 35.7915 
*END

*D_NET *449 0.00468467
*CONN
*P la_oenb[29] I
*I *646:io_la_oenb[29] I *D CaravelTopLevel
*CAP
1 la_oenb[29] 0.00149645
2 *646:io_la_oenb[29] 0.00149645
3 *646:io_la_oenb[29] *646:io_la_oenb[30] 5.11247e-05
4 la_data_out[29] *646:io_la_oenb[29] 0.000332213
5 *646:io_la_data_in[30] *646:io_la_oenb[29] 0.00130844
*RES
1 la_oenb[29] *646:io_la_oenb[29] 35.6197 
*END

*D_NET *450 0.0128418
*CONN
*P la_oenb[2] I
*I *646:io_la_oenb[2] I *D CaravelTopLevel
*CAP
1 la_oenb[2] 0.00187591
2 *646:io_la_oenb[2] 0.00187591
3 *646:io_la_oenb[2] *483:7 0
4 la_data_out[0] *646:io_la_oenb[2] 0.00125809
5 la_data_out[2] *646:io_la_oenb[2] 0.00460509
6 la_data_out[5] *646:io_la_oenb[2] 0.000355222
7 *646:io_la_data_in[4] *646:io_la_oenb[2] 0.00275985
8 *646:io_la_data_in[5] *646:io_la_oenb[2] 0.000111764
*RES
1 la_oenb[2] *646:io_la_oenb[2] 41.5445 
*END

*D_NET *451 0.00547858
*CONN
*P la_oenb[30] I
*I *646:io_la_oenb[30] I *D CaravelTopLevel
*CAP
1 la_oenb[30] 0.00119079
2 *646:io_la_oenb[30] 0.00119079
3 *646:io_la_oenb[30] *646:io_la_oenb[31] 0.000248095
4 la_data_out[30] *646:io_la_oenb[30] 0.00121008
5 la_data_out[31] *646:io_la_oenb[30] 0.000630686
6 *646:io_la_data_in[30] *646:io_la_oenb[30] 0.000733125
7 *646:io_la_data_in[31] *646:io_la_oenb[30] 0.00022389
8 *646:io_la_oenb[29] *646:io_la_oenb[30] 5.11247e-05
*RES
1 la_oenb[30] *646:io_la_oenb[30] 34.9716 
*END

*D_NET *452 0.00384295
*CONN
*P la_oenb[31] I
*I *646:io_la_oenb[31] I *D CaravelTopLevel
*CAP
1 la_oenb[31] 0.00156039
2 *646:io_la_oenb[31] 0.00156039
3 la_data_out[31] *646:io_la_oenb[31] 0.000100268
4 *646:io_la_data_in[32] *646:io_la_oenb[31] 0.000373815
5 *646:io_la_oenb[30] *646:io_la_oenb[31] 0.000248095
*RES
1 la_oenb[31] *646:io_la_oenb[31] 34.7999 
*END

*D_NET *453 0.00443845
*CONN
*P la_oenb[32] I
*I *646:io_la_oenb[32] I *D CaravelTopLevel
*CAP
1 la_oenb[32] 0.00126564
2 *646:io_la_oenb[32] 0.00126564
3 la_data_out[32] *646:io_la_oenb[32] 0.00102129
4 la_data_out[33] *646:io_la_oenb[32] 0.000337502
5 *646:io_la_data_in[32] *646:io_la_oenb[32] 0.000453354
6 *646:io_la_data_in[33] *646:io_la_oenb[32] 9.50256e-05
*RES
1 la_oenb[32] *646:io_la_oenb[32] 34.9328 
*END

*D_NET *454 0.00378962
*CONN
*P la_oenb[33] I
*I *646:io_la_oenb[33] I *D CaravelTopLevel
*CAP
1 la_oenb[33] 0.00120909
2 *646:io_la_oenb[33] 0.00120909
3 la_data_out[33] *646:io_la_oenb[33] 0.000969767
4 la_data_out[34] *646:io_la_oenb[33] 0.000264041
5 *646:io_la_data_in[34] *646:io_la_oenb[33] 0.000137633
*RES
1 la_oenb[33] *646:io_la_oenb[33] 34.7611 
*END

*D_NET *455 0.00343083
*CONN
*P la_oenb[34] I
*I *646:io_la_oenb[34] I *D CaravelTopLevel
*CAP
1 la_oenb[34] 0.00116997
2 *646:io_la_oenb[34] 0.00116997
3 la_data_out[34] *646:io_la_oenb[34] 0.000780454
4 *646:io_la_data_in[35] *646:io_la_oenb[34] 0.000310436
*RES
1 la_oenb[34] *646:io_la_oenb[34] 34.5035 
*END

*D_NET *456 0.00357731
*CONN
*P la_oenb[35] I
*I *646:io_la_oenb[35] I *D CaravelTopLevel
*CAP
1 la_oenb[35] 0.0012597
2 *646:io_la_oenb[35] 0.0012597
3 la_data_out[35] *646:io_la_oenb[35] 0.000277077
4 la_data_out[36] *646:io_la_oenb[35] 2.81221e-05
5 *646:io_la_data_in[35] *646:io_la_oenb[35] 0.000150004
6 *646:io_la_data_in[36] *646:io_la_oenb[35] 0.000602702
*RES
1 la_oenb[35] *646:io_la_oenb[35] 34.2459 
*END

*D_NET *457 0.00323619
*CONN
*P la_oenb[36] I
*I *646:io_la_oenb[36] I *D CaravelTopLevel
*CAP
1 la_oenb[36] 0.00125593
2 *646:io_la_oenb[36] 0.00125593
3 la_data_out[36] *646:io_la_oenb[36] 0.000548011
4 *646:io_la_data_in[37] *646:io_la_oenb[36] 0.000176314
*RES
1 la_oenb[36] *646:io_la_oenb[36] 33.293 
*END

*D_NET *458 0.00265928
*CONN
*P la_oenb[37] I
*I *646:io_la_oenb[37] I *D CaravelTopLevel
*CAP
1 la_oenb[37] 0.00112552
2 *646:io_la_oenb[37] 0.00112552
3 la_data_out[37] *646:io_la_oenb[37] 0.000217061
4 la_data_out[38] *646:io_la_oenb[37] 0
5 *646:io_la_data_in[37] *646:io_la_oenb[37] 0
6 *646:io_la_data_in[38] *646:io_la_oenb[37] 0.000191192
*RES
1 la_oenb[37] *646:io_la_oenb[37] 33.8165 
*END

*D_NET *459 0.00269187
*CONN
*P la_oenb[38] I
*I *646:io_la_oenb[38] I *D CaravelTopLevel
*CAP
1 la_oenb[38] 0.00103457
2 *646:io_la_oenb[38] 0.00103457
3 la_data_out[38] *646:io_la_oenb[38] 0.000358698
4 *646:io_la_data_in[39] *646:io_la_oenb[38] 0.000264041
*RES
1 la_oenb[38] *646:io_la_oenb[38] 33.6448 
*END

*D_NET *460 0.00239678
*CONN
*P la_oenb[39] I
*I *646:io_la_oenb[39] I *D CaravelTopLevel
*CAP
1 la_oenb[39] 0.00104043
2 *646:io_la_oenb[39] 0.00104043
3 la_data_out[39] *646:io_la_oenb[39] 0.000169384
4 *646:io_la_data_in[40] *646:io_la_oenb[39] 0.000146528
*RES
1 la_oenb[39] *646:io_la_oenb[39] 33.3872 
*END

*D_NET *461 0.0125136
*CONN
*P la_oenb[3] I
*I *646:io_la_oenb[3] I *D CaravelTopLevel
*CAP
1 la_oenb[3] 0.00176746
2 *646:io_la_oenb[3] 0.00176746
3 *646:io_la_oenb[3] *646:io_la_oenb[6] 0
4 la_data_out[2] *646:io_la_oenb[3] 8.58939e-05
5 la_data_out[4] *646:io_la_oenb[3] 0.00380882
6 *646:io_la_data_in[1] *646:io_la_oenb[3] 0.000206543
7 *646:io_la_data_in[2] *646:io_la_oenb[3] 0.00224763
8 *646:io_la_data_in[5] *646:io_la_oenb[3] 0.00262981
*RES
1 la_oenb[3] *646:io_la_oenb[3] 41.2869 
*END

*D_NET *462 0.00221314
*CONN
*P la_oenb[40] I
*I *646:io_la_oenb[40] I *D CaravelTopLevel
*CAP
1 la_oenb[40] 0.00102601
2 *646:io_la_oenb[40] 0.00102601
3 la_data_out[40] *646:io_la_oenb[40] 0.000133001
4 *646:io_la_data_in[41] *646:io_la_oenb[40] 2.81221e-05
*RES
1 la_oenb[40] *646:io_la_oenb[40] 33.2155 
*END

*D_NET *463 0.00193816
*CONN
*P la_oenb[41] I
*I *646:io_la_oenb[41] I *D CaravelTopLevel
*CAP
1 la_oenb[41] 0.000946238
2 *646:io_la_oenb[41] 0.000946238
3 la_data_out[41] *646:io_la_oenb[41] 4.77164e-06
4 *646:io_la_data_in[42] *646:io_la_oenb[41] 4.09095e-05
*RES
1 la_oenb[41] *646:io_la_oenb[41] 32.9579 
*END

*D_NET *464 0.00170736
*CONN
*P la_oenb[42] I
*I *646:io_la_oenb[42] I *D CaravelTopLevel
*CAP
1 la_oenb[42] 0.000853681
2 *646:io_la_oenb[42] 0.000853681
*RES
1 la_oenb[42] *646:io_la_oenb[42] 19.9996 
*END

*D_NET *465 0.00159681
*CONN
*P la_oenb[43] I
*I *646:io_la_oenb[43] I *D CaravelTopLevel
*CAP
1 la_oenb[43] 0.000798405
2 *646:io_la_oenb[43] 0.000798405
3 *646:io_la_data_in[44] *646:io_la_oenb[43] 0
*RES
1 la_oenb[43] *646:io_la_oenb[43] 18.4254 
*END

*D_NET *466 0.00145425
*CONN
*P la_oenb[44] I
*I *646:io_la_oenb[44] I *D CaravelTopLevel
*CAP
1 la_oenb[44] 0.000727126
2 *646:io_la_oenb[44] 0.000727126
3 la_data_out[44] *646:io_la_oenb[44] 0
*RES
1 la_oenb[44] *646:io_la_oenb[44] 16.8511 
*END

*D_NET *467 0.00137541
*CONN
*P la_oenb[45] I
*I *646:io_la_oenb[45] I *D CaravelTopLevel
*CAP
1 la_oenb[45] 0.000687706
2 *646:io_la_oenb[45] 0.000687706
*RES
1 la_oenb[45] *646:io_la_oenb[45] 15.8982 
*END

*D_NET *468 0.00125715
*CONN
*P la_oenb[46] I
*I *646:io_la_oenb[46] I *D CaravelTopLevel
*CAP
1 la_oenb[46] 0.000628577
2 *646:io_la_oenb[46] 0.000628577
*RES
1 la_oenb[46] *646:io_la_oenb[46] 14.4689 
*END

*D_NET *469 0.00129657
*CONN
*P la_oenb[47] I
*I *646:io_la_oenb[47] I *D CaravelTopLevel
*CAP
1 la_oenb[47] 0.000648287
2 *646:io_la_oenb[47] 0.000648287
*RES
1 la_oenb[47] *646:io_la_oenb[47] 14.9454 
*END

*D_NET *470 0.00149387
*CONN
*P la_oenb[48] I
*I *646:io_la_oenb[48] I *D CaravelTopLevel
*CAP
1 la_oenb[48] 0.000746937
2 *646:io_la_oenb[48] 0.000746937
*RES
1 la_oenb[48] *646:io_la_oenb[48] 17.2239 
*END

*D_NET *471 0.00151882
*CONN
*P la_oenb[49] I
*I *646:io_la_oenb[49] I *D CaravelTopLevel
*CAP
1 la_oenb[49] 0.000759411
2 *646:io_la_oenb[49] 0.000759411
3 la_data_out[49] *646:io_la_oenb[49] 0
*RES
1 la_oenb[49] *646:io_la_oenb[49] 17.4725 
*END

*D_NET *472 0.0107126
*CONN
*P la_oenb[4] I
*I *646:io_la_oenb[4] I *D CaravelTopLevel
*CAP
1 la_oenb[4] 0.00224983
2 *646:io_la_oenb[4] 0.00224983
3 la_data_out[6] *646:io_la_oenb[4] 0.00187675
4 *646:io_la_data_in[4] *646:io_la_oenb[4] 0.00373609
5 *646:io_la_data_in[6] *646:io_la_oenb[4] 0.000600063
*RES
1 la_oenb[4] *646:io_la_oenb[4] 41.0293 
*END

*D_NET *473 0.00163389
*CONN
*P la_oenb[50] I
*I *646:io_la_oenb[50] I *D CaravelTopLevel
*CAP
1 la_oenb[50] 0.000816947
2 *646:io_la_oenb[50] 0.000816947
3 *646:io_la_data_in[51] *646:io_la_oenb[50] 0
*RES
1 la_oenb[50] *646:io_la_oenb[50] 18.7568 
*END

*D_NET *474 0.00170736
*CONN
*P la_oenb[51] I
*I *646:io_la_oenb[51] I *D CaravelTopLevel
*CAP
1 la_oenb[51] 0.000853681
2 *646:io_la_oenb[51] 0.000853681
3 *646:io_la_data_in[52] *646:io_la_oenb[51] 0
*RES
1 la_oenb[51] *646:io_la_oenb[51] 19.9996 
*END

*D_NET *475 0.00227298
*CONN
*P la_oenb[52] I
*I *646:io_la_oenb[52] I *D CaravelTopLevel
*CAP
1 la_oenb[52] 0.00110214
2 *646:io_la_oenb[52] 0.00110214
3 la_data_out[52] *646:io_la_oenb[52] 4.77164e-06
4 *646:io_la_data_in[53] *646:io_la_oenb[52] 6.3933e-05
*RES
1 la_oenb[52] *646:io_la_oenb[52] 33.0437 
*END

*D_NET *476 0.00271016
*CONN
*P la_oenb[53] I
*I *646:io_la_oenb[53] I *D CaravelTopLevel
*CAP
1 la_oenb[53] 0.00115709
2 *646:io_la_oenb[53] 0.00115709
3 la_data_out[53] *646:io_la_oenb[53] 0.000260565
4 *646:io_la_data_in[54] *646:io_la_oenb[53] 0.000135416
*RES
1 la_oenb[53] *646:io_la_oenb[53] 32.2155 
*END

*D_NET *477 0.00249494
*CONN
*P la_oenb[54] I
*I *646:io_la_oenb[54] I *D CaravelTopLevel
*CAP
1 la_oenb[54] 0.00104809
2 *646:io_la_oenb[54] 0.00104809
3 la_data_out[54] *646:io_la_oenb[54] 0.000182058
4 *646:io_la_data_in[55] *646:io_la_oenb[54] 0.000216704
*RES
1 la_oenb[54] *646:io_la_oenb[54] 33.4731 
*END

*D_NET *478 0.00270017
*CONN
*P la_oenb[55] I
*I *646:io_la_oenb[55] I *D CaravelTopLevel
*CAP
1 la_oenb[55] 0.00107519
2 *646:io_la_oenb[55] 0.00107519
3 la_data_out[55] *646:io_la_oenb[55] 0.000355222
4 la_data_out[56] *646:io_la_oenb[55] 0
5 *646:io_la_data_in[55] *646:io_la_oenb[55] 0
6 *646:io_la_data_in[56] *646:io_la_oenb[55] 0.000194571
*RES
1 la_oenb[55] *646:io_la_oenb[55] 33.3401 
*END

*D_NET *479 0.00291541
*CONN
*P la_oenb[56] I
*I *646:io_la_oenb[56] I *D CaravelTopLevel
*CAP
1 la_oenb[56] 0.00123299
2 *646:io_la_oenb[56] 0.00123299
3 la_data_out[56] *646:io_la_oenb[56] 0.000140398
4 la_data_out[57] *646:io_la_oenb[56] 4.77164e-06
5 *646:io_la_data_in[57] *646:io_la_oenb[56] 0.000304255
*RES
1 la_oenb[56] *646:io_la_oenb[56] 33.9024 
*END

*D_NET *480 0.00367925
*CONN
*P la_oenb[57] I
*I *646:io_la_oenb[57] I *D CaravelTopLevel
*CAP
1 la_oenb[57] 0.00127971
2 *646:io_la_oenb[57] 0.00127971
3 *646:io_la_oenb[57] *646:io_la_oenb[58] 0
4 la_data_out[57] *646:io_la_oenb[57] 0.000544535
5 la_data_out[58] *646:io_la_oenb[57] 2.81221e-05
6 *646:io_la_data_in[58] *646:io_la_oenb[57] 0.000547164
*RES
1 la_oenb[57] *646:io_la_oenb[57] 34.16 
*END

*D_NET *481 0.00375192
*CONN
*P la_oenb[58] I
*I *646:io_la_oenb[58] I *D CaravelTopLevel
*CAP
1 la_oenb[58] 0.00126717
2 *646:io_la_oenb[58] 0.00126717
3 la_data_out[58] *646:io_la_oenb[58] 0.000203683
4 la_data_out[59] *646:io_la_oenb[58] 5.13684e-05
5 *646:io_la_data_in[58] *646:io_la_oenb[58] 0.000264032
6 *646:io_la_data_in[59] *646:io_la_oenb[58] 0.0006985
7 *646:io_la_oenb[57] *646:io_la_oenb[58] 0
*RES
1 la_oenb[58] *646:io_la_oenb[58] 33.2459 
*END

*D_NET *482 0.00373163
*CONN
*P la_oenb[59] I
*I *646:io_la_oenb[59] I *D CaravelTopLevel
*CAP
1 la_oenb[59] 0.0012815
2 *646:io_la_oenb[59] 0.0012815
3 la_data_out[59] *646:io_la_oenb[59] 0.000781176
4 *646:io_la_data_in[59] *646:io_la_oenb[59] 9.10923e-05
5 *646:io_la_data_in[60] *646:io_la_oenb[59] 0.00029636
*RES
1 la_oenb[59] *646:io_la_oenb[59] 34.5893 
*END

*D_NET *483 0.00765492
*CONN
*P la_oenb[5] I
*I *646:io_la_oenb[5] I *D CaravelTopLevel
*CAP
1 la_oenb[5] 0.000644304
2 *646:io_la_oenb[5] 0.000196053
3 *483:9 0.00220366
4 *483:7 0.00265191
5 *483:9 *505:11 0.00111585
6 la_data_out[4] *483:9 0.000364986
7 la_data_out[8] *646:io_la_oenb[5] 0
8 *646:io_la_oenb[2] *483:7 0
9 *333:11 *483:9 0.000478159
*RES
1 la_oenb[5] *483:7 27.9257 
2 *483:7 *483:9 48.7407 
3 *483:9 *646:io_la_oenb[5] 18.1175 
*END

*D_NET *484 0.00348111
*CONN
*P la_oenb[60] I
*I *646:io_la_oenb[60] I *D CaravelTopLevel
*CAP
1 la_oenb[60] 0.00148232
2 *646:io_la_oenb[60] 0.00148232
3 *646:io_la_oenb[60] *646:io_la_oenb[61] 0
4 la_data_out[60] *646:io_la_oenb[60] 0.000516475
5 la_data_out[61] *646:io_la_oenb[60] 0
*RES
1 la_oenb[60] *646:io_la_oenb[60] 33.2491 
*END

*D_NET *485 0.00389914
*CONN
*P la_oenb[61] I
*I *646:io_la_oenb[61] I *D CaravelTopLevel
*CAP
1 la_oenb[61] 0.00144276
2 *646:io_la_oenb[61] 0.00144276
3 la_data_out[61] *646:io_la_oenb[61] 0.00101362
4 *646:io_la_oenb[60] *646:io_la_oenb[61] 0
*RES
1 la_oenb[61] *646:io_la_oenb[61] 35.0187 
*END

*D_NET *486 0.00492004
*CONN
*P la_oenb[62] I
*I *646:io_la_oenb[62] I *D CaravelTopLevel
*CAP
1 la_oenb[62] 0.00132421
2 *646:io_la_oenb[62] 0.00132421
3 *646:io_la_oenb[62] *646:io_la_oenb[63] 0.000181187
4 la_data_out[62] *646:io_la_oenb[62] 0.00124882
5 *646:io_la_data_in[62] *646:io_la_oenb[62] 0.000664856
6 *646:io_la_data_in[63] *646:io_la_oenb[62] 0.000176758
7 *646:io_la_data_in[64] *646:io_la_oenb[62] 0
*RES
1 la_oenb[62] *646:io_la_oenb[62] 33.6784 
*END

*D_NET *487 0.0051552
*CONN
*P la_oenb[63] I
*I *646:io_la_oenb[63] I *D CaravelTopLevel
*CAP
1 la_oenb[63] 0.00138772
2 *646:io_la_oenb[63] 0.00138772
3 *646:io_la_oenb[63] *646:io_la_oenb[64] 0.000322875
4 la_data_out[64] *646:io_la_oenb[63] 0.000864893
5 *646:io_la_data_in[63] *646:io_la_oenb[63] 0.000743979
6 *646:io_la_data_in[64] *646:io_la_oenb[63] 0.000266829
7 *646:io_la_oenb[62] *646:io_la_oenb[63] 0.000181187
*RES
1 la_oenb[63] *646:io_la_oenb[63] 33.8635 
*END

*D_NET *488 0.00577677
*CONN
*P la_oenb[64] I
*I *646:io_la_oenb[64] I *D CaravelTopLevel
*CAP
1 la_oenb[64] 0.0012549
2 *646:io_la_oenb[64] 0.0012549
3 la_data_out[64] *646:io_la_oenb[64] 0.00036418
4 la_data_out[65] *646:io_la_oenb[64] 0.000999067
5 *646:io_la_data_in[65] *646:io_la_oenb[64] 0.00154178
6 *646:io_la_data_in[66] *646:io_la_oenb[64] 3.90663e-05
7 *646:io_la_oenb[63] *646:io_la_oenb[64] 0.000322875
*RES
1 la_oenb[64] *646:io_la_oenb[64] 34.8254 
*END

*D_NET *489 0.00609473
*CONN
*P la_oenb[65] I
*I *646:io_la_oenb[65] I *D CaravelTopLevel
*CAP
1 la_oenb[65] 0.00115386
2 *646:io_la_oenb[65] 0.00115386
3 *646:io_la_oenb[65] *646:io_la_oenb[66] 0.000550778
4 la_data_out[64] *646:io_la_oenb[65] 1.7998e-06
5 la_data_out[65] *646:io_la_oenb[65] 0.00157896
6 la_data_out[66] *646:io_la_oenb[65] 1.84725e-05
7 *646:io_la_data_in[66] *646:io_la_oenb[65] 0.00163701
*RES
1 la_oenb[65] *646:io_la_oenb[65] 34.3654 
*END

*D_NET *490 0.00667523
*CONN
*P la_oenb[66] I
*I *646:io_la_oenb[66] I *D CaravelTopLevel
*CAP
1 la_oenb[66] 0.00131123
2 *646:io_la_oenb[66] 0.00131123
3 la_data_out[66] *646:io_la_oenb[66] 0.001812
4 la_data_out[67] *646:io_la_oenb[66] 0.00124174
5 *646:io_la_data_in[66] *646:io_la_oenb[66] 0.000267206
6 *646:io_la_data_in[67] *646:io_la_oenb[66] 9.94827e-05
7 *646:io_la_data_in[68] *646:io_la_oenb[66] 8.15529e-05
8 *646:io_la_oenb[65] *646:io_la_oenb[66] 0.000550778
*RES
1 la_oenb[66] *646:io_la_oenb[66] 35.2578 
*END

*D_NET *491 0.00559552
*CONN
*P la_oenb[67] I
*I *646:io_la_oenb[67] I *D CaravelTopLevel
*CAP
1 la_oenb[67] 0.00169403
2 *646:io_la_oenb[67] 0.00169403
3 la_data_out[66] *646:io_la_oenb[67] 1.83836e-05
4 la_data_out[67] *646:io_la_oenb[67] 0.00179373
5 la_data_out[68] *646:io_la_oenb[67] 0.000176758
6 *646:io_la_data_in[69] *646:io_la_oenb[67] 0.000218598
*RES
1 la_oenb[67] *646:io_la_oenb[67] 34.7947 
*END

*D_NET *492 0.00722888
*CONN
*P la_oenb[68] I
*I *646:io_la_oenb[68] I *D CaravelTopLevel
*CAP
1 la_oenb[68] 0.00128174
2 *646:io_la_oenb[68] 0.00128174
3 *646:io_la_oenb[68] *646:io_la_oenb[69] 0.000915423
4 la_data_out[68] *646:io_la_oenb[68] 0.00192315
5 *646:io_la_data_in[68] *646:io_la_oenb[68] 0.00134946
6 *646:io_la_data_in[69] *646:io_la_oenb[68] 0.000108921
7 *646:io_la_data_in[70] *646:io_la_oenb[68] 0.000368456
*RES
1 la_oenb[68] *646:io_la_oenb[68] 35.6841 
*END

*D_NET *493 0.00574682
*CONN
*P la_oenb[69] I
*I *646:io_la_oenb[69] I *D CaravelTopLevel
*CAP
1 la_oenb[69] 0.00144818
2 *646:io_la_oenb[69] 0.00144818
3 *646:io_la_oenb[69] *646:io_la_oenb[70] 0.000872968
4 la_data_out[70] *646:io_la_oenb[69] 0.000704418
5 *646:io_la_data_in[70] *646:io_la_oenb[69] 0.000357655
6 *646:io_la_oenb[68] *646:io_la_oenb[69] 0.000915423
*RES
1 la_oenb[69] *646:io_la_oenb[69] 37.8768 
*END

*D_NET *494 0.011298
*CONN
*P la_oenb[6] I
*I *646:io_la_oenb[6] I *D CaravelTopLevel
*CAP
1 la_oenb[6] 0.00330667
2 *646:io_la_oenb[6] 0.00330667
3 la_data_out[4] *646:io_la_oenb[6] 0.000167883
4 *646:io_la_data_in[4] *646:io_la_oenb[6] 0.000116001
5 *646:io_la_data_in[7] *646:io_la_oenb[6] 0.00406697
6 *646:io_la_oenb[3] *646:io_la_oenb[6] 0
7 *388:11 *646:io_la_oenb[6] 0.000333797
*RES
1 la_oenb[6] *646:io_la_oenb[6] 39.0155 
*END

*D_NET *495 0.00773162
*CONN
*P la_oenb[70] I
*I *646:io_la_oenb[70] I *D CaravelTopLevel
*CAP
1 la_oenb[70] 0.00147418
2 *646:io_la_oenb[70] 0.00147418
3 la_data_out[70] *646:io_la_oenb[70] 5.70373e-05
4 la_data_out[71] *646:io_la_oenb[70] 0.00157806
5 *646:io_la_data_in[70] *646:io_la_oenb[70] 0.00142696
6 *646:io_la_data_in[71] *646:io_la_oenb[70] 0.000343044
7 *646:io_la_data_in[72] *646:io_la_oenb[70] 0.000505197
8 *646:io_la_oenb[69] *646:io_la_oenb[70] 0.000872968
*RES
1 la_oenb[70] *646:io_la_oenb[70] 37.1846 
*END

*D_NET *496 0.00599433
*CONN
*P la_oenb[71] I
*I *646:io_la_oenb[71] I *D CaravelTopLevel
*CAP
1 la_oenb[71] 0.00175788
2 *646:io_la_oenb[71] 0.00175788
3 *646:io_la_data_in[70] *646:io_la_oenb[71] 7.3271e-05
4 *646:io_la_data_in[71] *646:io_la_oenb[71] 0.00170639
5 *646:io_la_data_in[72] *646:io_la_oenb[71] 0.000698913
*RES
1 la_oenb[71] *646:io_la_oenb[71] 35.6534 
*END

*D_NET *497 0.00664187
*CONN
*P la_oenb[72] I
*I *646:io_la_oenb[72] I *D CaravelTopLevel
*CAP
1 la_oenb[72] 0.00190631
2 *646:io_la_oenb[72] 0.00190631
3 *646:io_la_oenb[72] *646:io_la_oenb[73] 0.000154145
4 *646:io_la_oenb[72] *646:io_la_oenb[74] 0
5 la_data_out[72] *646:io_la_oenb[72] 0.00239781
6 la_data_out[74] *646:io_la_oenb[72] 0.000277294
*RES
1 la_oenb[72] *646:io_la_oenb[72] 38.6556 
*END

*D_NET *498 0.00856078
*CONN
*P la_oenb[73] I
*I *646:io_la_oenb[73] I *D CaravelTopLevel
*CAP
1 la_oenb[73] 0.00128176
2 *646:io_la_oenb[73] 0.00128176
3 la_data_out[72] *646:io_la_oenb[73] 0.000772356
4 la_data_out[73] *646:io_la_oenb[73] 0.000108921
5 la_data_out[74] *646:io_la_oenb[73] 0.00205108
6 *646:io_la_data_in[73] *646:io_la_oenb[73] 0.00194974
7 *646:io_la_oenb[72] *646:io_la_oenb[73] 0.000154145
8 *244:17 *646:io_la_oenb[73] 0.000961004
*RES
1 la_oenb[73] *646:io_la_oenb[73] 37.5047 
*END

*D_NET *499 0.00734608
*CONN
*P la_oenb[74] I
*I *646:io_la_oenb[74] I *D CaravelTopLevel
*CAP
1 la_oenb[74] 0.00164658
2 *646:io_la_oenb[74] 0.00164658
3 la_data_out[73] *646:io_la_oenb[74] 0.00090662
4 *646:io_la_data_in[74] *646:io_la_oenb[74] 0.00202481
5 *646:io_la_oenb[72] *646:io_la_oenb[74] 0
6 *244:17 *646:io_la_oenb[74] 0.00112149
*RES
1 la_oenb[74] *646:io_la_oenb[74] 36.3403 
*END

*D_NET *500 0.00925189
*CONN
*P la_oenb[75] I
*I *646:io_la_oenb[75] I *D CaravelTopLevel
*CAP
1 la_oenb[75] 0.00152368
2 *646:io_la_oenb[75] 0.00152368
3 *646:io_la_oenb[75] *646:io_la_oenb[77] 3.55744e-05
4 la_data_out[74] *646:io_la_oenb[75] 0.000732267
5 la_data_out[75] *646:io_la_oenb[75] 0.00237317
6 la_data_out[76] *646:io_la_oenb[75] 0.00227899
7 *646:io_la_data_in[76] *646:io_la_oenb[75] 0.000678781
8 *244:17 *646:io_la_oenb[75] 0.000105747
*RES
1 la_oenb[75] *646:io_la_oenb[75] 39.6872 
*END

*D_NET *501 0.00778334
*CONN
*P la_oenb[76] I
*I *646:io_la_oenb[76] I *D CaravelTopLevel
*CAP
1 la_oenb[76] 0.00169116
2 *646:io_la_oenb[76] 0.00169116
3 *646:io_la_oenb[76] *646:io_la_oenb[77] 0.00180191
4 *646:io_la_oenb[76] *646:io_la_oenb[78] 0
5 la_data_out[76] *646:io_la_oenb[76] 0.00116369
6 la_data_out[77] *646:io_la_oenb[76] 0.000271346
7 la_data_out[78] *646:io_la_oenb[76] 0.000720447
8 *646:io_la_data_in[79] *646:io_la_oenb[76] 0
9 *244:17 *646:io_la_oenb[76] 0.000443637
*RES
1 la_oenb[76] *646:io_la_oenb[76] 36.6971 
*END

*D_NET *502 0.00914193
*CONN
*P la_oenb[77] I
*I *646:io_la_oenb[77] I *D CaravelTopLevel
*CAP
1 la_oenb[77] 0.0015887
2 *646:io_la_oenb[77] 0.0015887
3 *646:io_la_oenb[77] *646:io_la_oenb[79] 0.000322875
4 la_data_out[77] *646:io_la_oenb[77] 0.00295809
5 la_data_out[78] *646:io_la_oenb[77] 0.000846083
6 *646:io_la_oenb[75] *646:io_la_oenb[77] 3.55744e-05
7 *646:io_la_oenb[76] *646:io_la_oenb[77] 0.00180191
*RES
1 la_oenb[77] *646:io_la_oenb[77] 37.0272 
*END

*D_NET *503 0.0061953
*CONN
*P la_oenb[78] I
*I *646:io_la_oenb[78] I *D CaravelTopLevel
*CAP
1 la_oenb[78] 0.00281342
2 *646:io_la_oenb[78] 0.00281342
3 *646:io_la_oenb[78] *646:io_la_oenb[80] 0.000307893
4 la_data_out[76] *646:io_la_oenb[78] 0
5 la_data_out[80] *646:io_la_oenb[78] 0.000260569
6 *646:io_la_data_in[77] *646:io_la_oenb[78] 0
7 *646:io_la_data_in[79] *646:io_la_oenb[78] 0
8 *646:io_la_data_in[81] *646:io_la_oenb[78] 0
9 *646:io_la_oenb[76] *646:io_la_oenb[78] 0
*RES
1 la_oenb[78] *646:io_la_oenb[78] 37.6251 
*END

*D_NET *504 0.00838446
*CONN
*P la_oenb[79] I
*I *646:io_la_oenb[79] I *D CaravelTopLevel
*CAP
1 la_oenb[79] 0.00213763
2 *646:io_la_oenb[79] 0.00213763
3 la_data_out[78] *646:io_la_oenb[79] 5.99197e-05
4 la_data_out[79] *646:io_la_oenb[79] 0
5 *646:io_la_data_in[80] *646:io_la_oenb[79] 0.00322127
6 *646:io_la_data_in[82] *646:io_la_oenb[79] 0.000505127
7 *646:io_la_oenb[77] *646:io_la_oenb[79] 0.000322875
*RES
1 la_oenb[79] *646:io_la_oenb[79] 37.4566 
*END

*D_NET *505 0.0078657
*CONN
*P la_oenb[7] I
*I *646:io_la_oenb[7] I *D CaravelTopLevel
*CAP
1 la_oenb[7] 0.00108094
2 *646:io_la_oenb[7] 0.000155079
3 *505:17 0.00151095
4 *505:11 0.00243681
5 *646:io_la_data_in[5] *505:11 0.000103555
6 *646:io_la_data_in[7] *505:11 0.000210294
7 *646:io_la_data_in[7] *505:17 0.000237071
8 *646:io_la_data_in[8] *505:17 0.00016681
9 *155:9 *505:17 0.000112756
10 *388:11 *646:io_la_oenb[7] 0.000101159
11 *388:11 *505:17 0.000634428
12 *483:9 *505:11 0.00111585
*RES
1 la_oenb[7] *505:11 41.7836 
2 *505:11 *505:17 49.8725 
3 *505:17 *646:io_la_oenb[7] 1.74 
*END

*D_NET *506 0.00870784
*CONN
*P la_oenb[80] I
*I *646:io_la_oenb[80] I *D CaravelTopLevel
*CAP
1 la_oenb[80] 0.00181262
2 *646:io_la_oenb[80] 0.00181262
3 la_data_out[78] *646:io_la_oenb[80] 0
4 la_data_out[80] *646:io_la_oenb[80] 0.00173739
5 la_data_out[81] *646:io_la_oenb[80] 0.00271568
6 la_data_out[82] *646:io_la_oenb[80] 0.00020766
7 *646:io_la_data_in[81] *646:io_la_oenb[80] 0
8 *646:io_la_data_in[83] *646:io_la_oenb[80] 0.000113979
9 *646:io_la_oenb[78] *646:io_la_oenb[80] 0.000307893
*RES
1 la_oenb[80] *646:io_la_oenb[80] 38.7497 
*END

*D_NET *507 0.00842996
*CONN
*P la_oenb[81] I
*I *646:io_la_oenb[81] I *D CaravelTopLevel
*CAP
1 la_oenb[81] 0.00240346
2 *646:io_la_oenb[81] 0.00240346
3 *646:io_la_oenb[81] *509:11 0.000148499
4 *646:io_la_data_in[81] *646:io_la_oenb[81] 0.000102535
5 *646:io_la_data_in[82] *646:io_la_oenb[81] 0.003372
*RES
1 la_oenb[81] *646:io_la_oenb[81] 41.5876 
*END

*D_NET *508 0.00953437
*CONN
*P la_oenb[82] I
*I *646:io_la_oenb[82] I *D CaravelTopLevel
*CAP
1 la_oenb[82] 0.00211921
2 *646:io_la_oenb[82] 0.00211921
3 la_data_out[83] *646:io_la_oenb[82] 0.00300334
4 la_data_out[85] *646:io_la_oenb[82] 0
5 *646:io_la_data_in[84] *646:io_la_oenb[82] 0.00193048
6 *646:io_la_data_in[85] *646:io_la_oenb[82] 0.000362142
*RES
1 la_oenb[82] *646:io_la_oenb[82] 38.0576 
*END

*D_NET *509 0.00771145
*CONN
*P la_oenb[83] I
*I *646:io_la_oenb[83] I *D CaravelTopLevel
*CAP
1 la_oenb[83] 0.000124651
2 *646:io_la_oenb[83] 0.000767932
3 *509:11 0.00276274
4 *509:9 0.00211946
5 *509:11 *511:11 0.000924495
6 la_data_out[81] *646:io_la_oenb[83] 0
7 *646:io_la_data_in[82] *509:11 0.000103264
8 *646:io_la_data_in[85] *509:11 0.0007604
9 *646:io_la_oenb[81] *509:11 0.000148499
*RES
1 la_oenb[83] *509:9 16.3464 
2 *509:9 *509:11 45.8821 
3 *509:11 *646:io_la_oenb[83] 30.7739 
*END

*D_NET *510 0.0096886
*CONN
*P la_oenb[84] I
*I *646:io_la_oenb[84] I *D CaravelTopLevel
*CAP
1 la_oenb[84] 0.00253125
2 *646:io_la_oenb[84] 0.00253125
3 la_data_out[82] *646:io_la_oenb[84] 0
4 la_data_out[84] *646:io_la_oenb[84] 0
5 *646:io_la_data_in[82] *646:io_la_oenb[84] 0
6 *646:io_la_data_in[83] *646:io_la_oenb[84] 0.000749996
7 *646:io_la_data_in[85] *646:io_la_oenb[84] 0.00387611
*RES
1 la_oenb[84] *646:io_la_oenb[84] 43.926 
*END

*D_NET *511 0.00831156
*CONN
*P la_oenb[85] I
*I *646:io_la_oenb[85] I *D CaravelTopLevel
*CAP
1 la_oenb[85] 0.000173606
2 *646:io_la_oenb[85] 0.000787385
3 *511:11 0.00255511
4 *511:9 0.00194133
5 *511:11 *646:io_la_oenb[86] 0.000577815
6 *511:11 *513:11 0.000837551
7 la_data_out[83] *646:io_la_oenb[85] 0
8 *646:io_la_data_in[83] *646:io_la_oenb[85] 0
9 *646:io_la_data_in[85] *511:11 0.000514261
10 *509:11 *511:11 0.000924495
*RES
1 la_oenb[85] *511:9 17.2993 
2 *511:9 *511:11 43.9764 
3 *511:11 *646:io_la_oenb[85] 31.3746 
*END

*D_NET *512 0.00954163
*CONN
*P la_oenb[86] I
*I *646:io_la_oenb[86] I *D CaravelTopLevel
*CAP
1 la_oenb[86] 0.00317967
2 *646:io_la_oenb[86] 0.00317967
3 *646:io_la_oenb[86] *513:11 0.00127858
4 la_data_out[84] *646:io_la_oenb[86] 0
5 *646:io_la_data_in[84] *646:io_la_oenb[86] 0
6 *646:io_la_data_in[85] *646:io_la_oenb[86] 0.0013259
7 *646:io_la_data_in[87] *646:io_la_oenb[86] 0
8 *511:11 *646:io_la_oenb[86] 0.000577815
*RES
1 la_oenb[86] *646:io_la_oenb[86] 43.0473 
*END

*D_NET *513 0.00828908
*CONN
*P la_oenb[87] I
*I *646:io_la_oenb[87] I *D CaravelTopLevel
*CAP
1 la_oenb[87] 0.000107602
2 *646:io_la_oenb[87] 0.000809038
3 *513:11 0.00295948
4 *513:9 0.00225804
5 la_data_out[85] *646:io_la_oenb[87] 0
6 *646:io_la_data_in[85] *646:io_la_oenb[87] 3.87911e-05
7 *646:io_la_oenb[86] *513:11 0.00127858
8 *511:11 *513:11 0.000837551
*RES
1 la_oenb[87] *513:9 16.3464 
2 *513:9 *513:11 48.7407 
3 *513:11 *646:io_la_oenb[87] 32.2032 
*END

*D_NET *514 0.00770148
*CONN
*P la_oenb[88] I
*I *646:io_la_oenb[88] I *D CaravelTopLevel
*CAP
1 la_oenb[88] 0.000416616
2 *646:io_la_oenb[88] 0.000483336
3 *514:11 0.00253805
4 *514:9 0.00247133
5 la_data_out[88] *646:io_la_oenb[88] 0
6 la_data_out[88] *514:9 0
7 *646:io_la_data_in[86] *646:io_la_oenb[88] 0
8 *389:11 *514:11 0.00179214
*RES
1 la_oenb[88] *514:9 23.8864 
2 *514:9 *514:11 48.2643 
3 *514:11 *646:io_la_oenb[88] 24.4354 
*END

*D_NET *515 0.0124474
*CONN
*P la_oenb[89] I
*I *646:io_la_oenb[89] I *D CaravelTopLevel
*CAP
1 la_oenb[89] 0.00175711
2 *646:io_la_oenb[89] 0.00175711
3 *646:io_la_oenb[89] *646:io_la_oenb[92] 0.000161075
4 la_data_out[88] *646:io_la_oenb[89] 0.000146541
5 la_data_out[89] *646:io_la_oenb[89] 0.000284346
6 la_data_out[92] *646:io_la_oenb[89] 0.000225296
7 *646:io_la_data_in[87] *646:io_la_oenb[89] 7.62082e-05
8 *646:io_la_data_in[89] *646:io_la_oenb[89] 0.00371907
9 *646:io_la_data_in[90] *646:io_la_oenb[89] 0.00432065
*RES
1 la_oenb[89] *646:io_la_oenb[89] 41.1152 
*END

*D_NET *516 0.00770217
*CONN
*P la_oenb[8] I
*I *646:io_la_oenb[8] I *D CaravelTopLevel
*CAP
1 la_oenb[8] 0.00336671
2 *646:io_la_oenb[8] 0.00336671
3 *646:io_la_oenb[8] *646:io_la_oenb[9] 0.000361856
4 *646:io_la_data_in[11] *646:io_la_oenb[8] 0
5 *646:io_la_oenb[10] *646:io_la_oenb[8] 0.000606901
*RES
1 la_oenb[8] *646:io_la_oenb[8] 42.7038 
*END

*D_NET *517 0.0104735
*CONN
*P la_oenb[90] I
*I *646:io_la_oenb[90] I *D CaravelTopLevel
*CAP
1 la_oenb[90] 0.000223347
2 *646:io_la_oenb[90] 0.000582228
3 *517:9 0.00199978
4 *517:7 0.0016409
5 *517:9 *519:11 0.00157381
6 *646:io_la_data_in[88] *646:io_la_oenb[90] 0
7 *389:11 *517:9 0.00392279
8 *392:11 *517:9 0.000530622
*RES
1 la_oenb[90] *517:7 19.4743 
2 *517:7 *517:9 52.0757 
3 *517:9 *646:io_la_oenb[90] 26.0925 
*END

*D_NET *518 0.0104455
*CONN
*P la_oenb[91] I
*I *646:io_la_oenb[91] I *D CaravelTopLevel
*CAP
1 la_oenb[91] 0.00296151
2 *646:io_la_oenb[91] 0.00296151
3 la_data_out[91] *646:io_la_oenb[91] 0.00452246
4 la_data_out[92] *646:io_la_oenb[91] 0
*RES
1 la_oenb[91] *646:io_la_oenb[91] 41.5445 
*END

*D_NET *519 0.0108205
*CONN
*P la_oenb[92] I
*I *646:io_la_oenb[92] I *D CaravelTopLevel
*CAP
1 la_oenb[92] 0.00032155
2 *646:io_la_oenb[92] 0.000525549
3 *519:11 0.00164305
4 *519:9 0.00143905
5 *519:9 *646:io_la_oenb[95] 0.000170604
6 *519:11 *520:9 0.00326492
7 la_data_out[92] *519:9 0
8 *646:io_la_data_in[90] *646:io_la_oenb[92] 0
9 *646:io_la_oenb[89] *646:io_la_oenb[92] 0.000161075
10 *392:11 *519:11 0.00172086
11 *517:9 *519:11 0.00157381
*RES
1 la_oenb[92] *519:9 22.1257 
2 *519:9 *519:11 51.1229 
3 *519:11 *646:io_la_oenb[92] 26.9211 
*END

*D_NET *520 0.00958047
*CONN
*P la_oenb[93] I
*I *646:io_la_oenb[93] I *D CaravelTopLevel
*CAP
1 la_oenb[93] 0.000180813
2 *646:io_la_oenb[93] 0.000550869
3 *520:9 0.00255213
4 *520:7 0.00218207
5 *520:9 *522:15 0.000213314
6 *646:io_la_data_in[97] *520:7 0.000200631
7 *392:9 *646:io_la_oenb[93] 0
8 *392:11 *520:9 0.000435718
9 *519:11 *520:9 0.00326492
*RES
1 la_oenb[93] *520:7 18.77 
2 *520:7 *520:9 57.3164 
3 *520:9 *646:io_la_oenb[93] 25.8439 
*END

*D_NET *521 0.0111659
*CONN
*P la_oenb[94] I
*I *646:io_la_oenb[94] I *D CaravelTopLevel
*CAP
1 la_oenb[94] 0.00304891
2 *646:io_la_oenb[94] 0.00304891
3 *646:io_la_oenb[94] *646:io_la_oenb[97] 0
4 *646:io_la_data_in[94] *646:io_la_oenb[94] 0.00410033
5 *646:io_la_data_in[95] *646:io_la_oenb[94] 0.000472524
6 *646:io_la_data_in[98] *646:io_la_oenb[94] 0.000495174
*RES
1 la_oenb[94] *646:io_la_oenb[94] 43.7031 
*END

*D_NET *522 0.00872106
*CONN
*P la_oenb[95] I
*I *646:io_la_oenb[95] I *D CaravelTopLevel
*CAP
1 la_oenb[95] 0.000915356
2 *646:io_la_oenb[95] 0.000579617
3 *522:15 0.00230233
4 *522:13 0.00263807
5 la_data_out[92] *646:io_la_oenb[95] 0
6 *268:11 *522:13 0.00190177
7 *268:11 *522:15 0
8 *394:11 *522:15 0
9 *519:9 *646:io_la_oenb[95] 0.000170604
10 *520:9 *522:15 0.000213314
*RES
1 la_oenb[95] *522:13 39.5982 
2 *522:13 *522:15 36.5918 
3 *522:15 *646:io_la_oenb[95] 28.0811 
*END

*D_NET *523 0.012283
*CONN
*P la_oenb[96] I
*I *646:io_la_oenb[96] I *D CaravelTopLevel
*CAP
1 la_oenb[96] 0.00237212
2 *646:io_la_oenb[96] 0.00237212
3 la_data_out[96] *646:io_la_oenb[96] 0.00131741
4 la_data_out[98] *646:io_la_oenb[96] 0.00303459
5 *646:io_la_data_in[100] *646:io_la_oenb[96] 0.000295978
6 *646:io_la_data_in[95] *646:io_la_oenb[96] 0.00289076
7 *273:9 *646:io_la_oenb[96] 0
*RES
1 la_oenb[96] *646:io_la_oenb[96] 41.7806 
*END

*D_NET *524 0.0143293
*CONN
*P la_oenb[97] I
*I *646:io_la_oenb[97] I *D CaravelTopLevel
*CAP
1 la_oenb[97] 0.000152843
2 *646:io_la_oenb[97] 0.000674464
3 *524:11 0.00157956
4 *524:9 0.00105794
5 *524:11 *525:15 0.00419015
6 la_data_out[94] *646:io_la_oenb[97] 0.000291187
7 la_data_out[97] *524:11 0.000998081
8 *646:io_la_data_in[98] *646:io_la_oenb[97] 0
9 *646:io_la_oenb[100] *524:11 4.46237e-05
10 *646:io_la_oenb[94] *646:io_la_oenb[97] 0
11 *268:11 *524:11 0.00444423
12 *394:11 *524:11 0.00079213
13 *401:9 *524:11 0.000104076
*RES
1 la_oenb[97] *524:9 16.3464 
2 *524:9 *524:11 61.1279 
3 *524:11 *646:io_la_oenb[97] 31.4989 
*END

*D_NET *525 0.0143509
*CONN
*P la_oenb[98] I
*I *646:io_la_oenb[98] I *D CaravelTopLevel
*CAP
1 la_oenb[98] 0.000251824
2 *646:io_la_oenb[98] 0.000748769
3 *525:15 0.00205351
4 *525:13 0.00155656
5 *525:15 *526:11 0.00393601
6 la_data_out[101] *525:15 0.000118429
7 la_data_out[97] *525:15 0.00066276
8 *646:io_la_data_in[95] *646:io_la_oenb[98] 0
9 *646:io_la_data_in[96] *525:15 0.000381727
10 *646:io_la_oenb[101] *525:15 0.000153144
11 *275:9 *525:13 2.56825e-05
12 *394:11 *525:15 0.000272377
13 *401:9 *525:15 0
14 *524:11 *525:15 0.00419015
*RES
1 la_oenb[98] *525:13 20.1579 
2 *525:13 *525:15 62.0807 
3 *525:15 *646:io_la_oenb[98] 30.4218 
*END

*D_NET *526 0.0131313
*CONN
*P la_oenb[99] I
*I *646:io_la_oenb[99] I *D CaravelTopLevel
*CAP
1 la_oenb[99] 0.000175957
2 *646:io_la_oenb[99] 0.000664632
3 *526:11 0.00250254
4 *526:9 0.00201386
5 la_data_out[101] *526:11 0.00020516
6 la_data_out[96] *646:io_la_oenb[99] 0.000539412
7 la_data_out[97] *526:11 0.00065633
8 *646:io_la_oenb[101] *526:11 0.00103466
9 *275:11 *526:11 0.00140271
10 *401:9 *526:11 0
11 *525:15 *526:11 0.00393601
*RES
1 la_oenb[99] *526:9 17.2993 
2 *526:9 *526:11 60.6514 
3 *526:11 *646:io_la_oenb[99] 32.2032 
*END

*D_NET *527 0.0073549
*CONN
*P la_oenb[9] I
*I *646:io_la_oenb[9] I *D CaravelTopLevel
*CAP
1 la_oenb[9] 0.00249433
2 *646:io_la_oenb[9] 0.00249433
3 la_data_out[10] *646:io_la_oenb[9] 0.00108429
4 la_data_out[11] *646:io_la_oenb[9] 0.000468802
5 la_data_out[7] *646:io_la_oenb[9] 0
6 *646:io_la_data_in[12] *646:io_la_oenb[9] 0.00011057
7 *646:io_la_data_in[9] *646:io_la_oenb[9] 0
8 *646:io_la_oenb[10] *646:io_la_oenb[9] 0.000340707
9 *646:io_la_oenb[8] *646:io_la_oenb[9] 0.000361856
*RES
1 la_oenb[9] *646:io_la_oenb[9] 39.9989 
*END

*D_NET *528 0.0210917
*CONN
*P user_clock2 I
*I *646:io_user_clock2 I *D CaravelTopLevel
*CAP
1 user_clock2 0.000276753
2 *646:io_user_clock2 0.000594683
3 *528:11 0.00197891
4 *528:9 0.00166098
5 *528:11 *529:11 0.00821833
6 *528:11 *530:11 0.00787144
7 *646:io_la_data_in[123] *646:io_user_clock2 0
8 *302:11 *528:11 0.000490624
*RES
1 user_clock2 *528:9 20.9243 
2 *528:9 *528:11 95.9071 
3 *528:11 *646:io_user_clock2 26.2168 
*END

*D_NET *529 0.0163922
*CONN
*P user_irq[0] O
*I *646:io_user_irq[0] O *D CaravelTopLevel
*CAP
1 user_irq[0] 0.000244058
2 *646:io_user_irq[0] 0.00047633
3 *529:11 0.00329803
4 *529:9 0.0035303
5 user_irq[0] user_irq[1] 0
6 *529:9 *530:9 0
7 *529:11 *530:11 0.000366854
8 *646:io_la_data_in[123] *529:9 0.000258323
9 *528:11 *529:11 0.00821833
*RES
1 *646:io_user_irq[0] *529:9 25.8646 
2 *529:9 *529:11 97.3364 
3 *529:11 user_irq[0] 20.1786 
*END

*D_NET *530 0.0188192
*CONN
*P user_irq[1] O
*I *646:io_user_irq[1] O *D CaravelTopLevel
*CAP
1 user_irq[1] 0.000315908
2 *646:io_user_irq[1] 0.000504969
3 *530:11 0.00259635
4 *530:9 0.00278541
5 la_data_out[123] *530:9 0.000108172
6 user_irq[0] user_irq[1] 0
7 *646:io_la_data_in[123] *530:9 0
8 *302:11 *530:11 0.0042701
9 *528:11 *530:11 0.00787144
10 *529:9 *530:9 0
11 *529:11 *530:11 0.000366854
*RES
1 *646:io_user_irq[1] *530:9 25.1396 
2 *530:9 *530:11 97.3364 
3 *530:11 user_irq[1] 22.0014 
*END

*D_NET *531 0.0162722
*CONN
*P user_irq[2] O
*I *646:io_user_irq[2] O *D CaravelTopLevel
*CAP
1 user_irq[2] 0.0047969
2 *646:io_user_irq[2] 0.0047969
3 *646:io_la_data_in[127] user_irq[2] 0.00608197
4 *646:io_la_oenb[127] user_irq[2] 0.000596403
*RES
1 *646:io_user_irq[2] user_irq[2] 49.3972 
*END

*D_NET *540 0.0190857
*CONN
*P wb_clk_i I
*I *646:io_wb_clk_i I *D CaravelTopLevel
*CAP
1 wb_clk_i 0.00534569
2 *646:io_wb_clk_i 0.00534569
3 *646:io_wb_clk_i wbs_dat_o[0] 0.00486769
4 *646:io_wb_clk_i *646:io_wb_rst_i 0
5 *646:io_wb_clk_i *646:io_wbs_adr_i[2] 0.00068774
6 *646:io_wb_clk_i *646:io_wbs_dat_i[0] 0
7 *646:io_wb_clk_i *542:8 0.000993588
8 *646:io_wb_clk_i *575:9 0.00117892
9 *646:io_wb_clk_i *644:9 0.000666347
*RES
1 wb_clk_i *646:io_wb_clk_i 48.2033 
*END

*D_NET *541 0.0170754
*CONN
*P wb_rst_i I
*I *646:io_wb_rst_i I *D CaravelTopLevel
*CAP
1 wb_rst_i 0.00531827
2 *646:io_wb_rst_i 0.00531827
3 *646:io_wb_rst_i *646:io_wbs_dat_i[0] 0.00601147
4 *646:io_wb_rst_i *642:7 0.000427386
5 *646:io_wb_clk_i *646:io_wb_rst_i 0
*RES
1 wb_rst_i *646:io_wb_rst_i 49.3972 
*END

*D_NET *542 0.0154414
*CONN
*P wbs_ack_o O
*I *646:io_wbs_ack_o O *D CaravelTopLevel
*CAP
1 wbs_ack_o 0.00073542
2 *646:io_wbs_ack_o 0.0042421
3 *542:8 0.00497752
4 *542:8 wbs_dat_o[0] 0.00199124
5 *542:8 *646:io_wbs_dat_i[2] 0.00188716
6 *542:8 *587:9 0.000433762
7 *542:8 *645:9 0.000180621
8 *646:io_wb_clk_i *542:8 0.000993588
*RES
1 *646:io_wbs_ack_o *542:8 33.9592 
2 *542:8 wbs_ack_o 16.2711 
*END

*D_NET *543 0.0167467
*CONN
*P wbs_adr_i[0] I
*I *646:io_wbs_adr_i[0] I *D CaravelTopLevel
*CAP
1 wbs_adr_i[0] 0.00394298
2 *646:io_wbs_adr_i[0] 0.000874226
3 *543:13 0.0048172
4 *646:io_wbs_adr_i[0] *569:17 3.95309e-05
5 *646:io_wbs_adr_i[0] *643:11 0
6 *543:13 *554:13 0.0070728
*RES
1 wbs_adr_i[0] *543:13 35.5714 
2 *543:13 *646:io_wbs_adr_i[0] 16.9029 
*END

*D_NET *544 0.0190752
*CONN
*P wbs_adr_i[10] I
*I *646:io_wbs_adr_i[10] I *D CaravelTopLevel
*CAP
1 wbs_adr_i[10] 0.000622615
2 *646:io_wbs_adr_i[10] 0.000263435
3 *544:9 0.00162972
4 *544:7 0.0019889
5 *646:io_wbs_adr_i[10] wbs_dat_o[14] 0
6 *646:io_wbs_adr_i[10] *581:7 0
7 *646:io_wbs_adr_i[10] *609:11 0.000101159
8 *544:7 wbs_dat_o[9] 0
9 *544:7 *646:io_wbs_dat_i[5] 0
10 *544:9 *646:io_wbs_adr_i[11] 0.00111821
11 *544:9 *646:io_wbs_adr_i[9] 0.000145518
12 *544:9 *546:9 0.00423036
13 *544:9 *577:9 0.0071029
14 *544:9 *605:9 0.00186256
15 *544:9 *609:11 9.8592e-06
*RES
1 wbs_adr_i[10] *544:7 28.2779 
2 *544:7 *544:9 82.0907 
3 *544:9 *646:io_wbs_adr_i[10] 17.7654 
*END

*D_NET *545 0.0218385
*CONN
*P wbs_adr_i[11] I
*I *646:io_wbs_adr_i[11] I *D CaravelTopLevel
*CAP
1 wbs_adr_i[11] 0.00573512
2 *646:io_wbs_adr_i[11] 0.00573512
3 *646:io_wbs_adr_i[11] *646:io_wbs_adr_i[14] 0
4 *646:io_wbs_adr_i[11] *646:io_wbs_adr_i[9] 0.00456389
5 *646:io_wbs_adr_i[11] *646:io_wbs_dat_i[11] 0
6 *646:io_wbs_adr_i[11] *646:io_wbs_dat_i[6] 0.000364102
7 *646:io_wbs_adr_i[11] *546:9 0.000854764
8 *646:io_wbs_adr_i[11] *571:13 0
9 *646:io_wbs_adr_i[11] *577:9 0.00175229
10 *646:io_wbs_adr_i[11] *581:9 0.000117156
11 *646:io_wbs_adr_i[11] *605:9 0.000190845
12 *646:io_wbs_adr_i[11] *607:13 0.00016958
13 *646:io_wbs_adr_i[11] *609:11 0.000389281
14 *646:io_wbs_adr_i[11] *610:11 0.000130952
15 *646:io_wbs_adr_i[11] *611:11 0.00060156
16 *646:io_wbs_adr_i[11] *613:11 0.00011562
17 *544:9 *646:io_wbs_adr_i[11] 0.00111821
*RES
1 wbs_adr_i[11] *646:io_wbs_adr_i[11] 45.1846 
*END

*D_NET *546 0.0186744
*CONN
*P wbs_adr_i[12] I
*I *646:io_wbs_adr_i[12] I *D CaravelTopLevel
*CAP
1 wbs_adr_i[12] 0.00065193
2 *646:io_wbs_adr_i[12] 0.000180772
3 *546:9 0.0015023
4 *546:7 0.00197346
5 *646:io_wbs_adr_i[12] *583:7 4.36547e-05
6 *546:9 wbs_dat_o[15] 0.000120171
7 *546:9 *577:9 0.000374843
8 *546:9 *582:9 0.00178327
9 *546:9 *609:11 0.00061801
10 *546:9 *611:11 0.00634091
11 *646:io_wbs_adr_i[11] *546:9 0.000854764
12 *544:9 *546:9 0.00423036
*RES
1 wbs_adr_i[12] *546:7 28.63 
2 *546:7 *546:9 80.185 
3 *546:9 *646:io_wbs_adr_i[12] 16.9368 
*END

*D_NET *547 0.0147546
*CONN
*P wbs_adr_i[13] I
*I *646:io_wbs_adr_i[13] I *D CaravelTopLevel
*CAP
1 wbs_adr_i[13] 0.00370767
2 *646:io_wbs_adr_i[13] 0.00370767
3 *646:io_wbs_adr_i[13] *646:io_wbs_dat_i[12] 0.000310436
4 *646:io_wbs_adr_i[13] *580:17 0.00702885
*RES
1 wbs_adr_i[13] *646:io_wbs_adr_i[13] 49.2825 
*END

*D_NET *548 0.0102551
*CONN
*P wbs_adr_i[14] I
*I *646:io_wbs_adr_i[14] I *D CaravelTopLevel
*CAP
1 wbs_adr_i[14] 0.00512755
2 *646:io_wbs_adr_i[14] 0.00512755
3 *646:io_wbs_adr_i[14] wbs_dat_o[15] 0
4 *646:io_wbs_adr_i[14] *646:io_wbs_adr_i[18] 0
5 *646:io_wbs_adr_i[14] *639:9 0
6 *646:io_wbs_adr_i[11] *646:io_wbs_adr_i[14] 0
*RES
1 wbs_adr_i[14] *646:io_wbs_adr_i[14] 46.0096 
*END

*D_NET *549 0.0145295
*CONN
*P wbs_adr_i[15] I
*I *646:io_wbs_adr_i[15] I *D CaravelTopLevel
*CAP
1 wbs_adr_i[15] 0.000820662
2 *646:io_wbs_adr_i[15] 0.000136363
3 *549:9 0.00197699
4 *549:7 0.00266129
5 *549:7 *646:io_wbs_dat_i[10] 0
6 *549:9 *646:io_wbs_adr_i[16] 0.000584963
7 *549:9 *581:9 0.000597202
8 *549:9 *583:9 0.0001318
9 *549:9 *612:11 0.00500755
10 *549:9 *613:11 0.000191095
11 *549:9 *616:11 0.00242163
*RES
1 wbs_adr_i[15] *549:7 31.095 
2 *549:7 *549:9 76.3736 
3 *549:9 *646:io_wbs_adr_i[15] 17.0611 
*END

*D_NET *550 0.0200985
*CONN
*P wbs_adr_i[16] I
*I *646:io_wbs_adr_i[16] I *D CaravelTopLevel
*CAP
1 wbs_adr_i[16] 0.00431104
2 *646:io_wbs_adr_i[16] 0.00431104
3 *646:io_wbs_adr_i[16] wbs_dat_o[15] 0.00670447
4 *646:io_wbs_adr_i[16] *646:io_wbs_dat_i[11] 0
5 *646:io_wbs_adr_i[16] *646:io_wbs_dat_i[12] 0.000232058
6 *646:io_wbs_adr_i[16] *581:9 0.000610983
7 *646:io_wbs_adr_i[16] *583:9 0.0011016
8 *646:io_wbs_adr_i[16] *612:11 0.00039978
9 *646:io_wbs_adr_i[16] *613:11 0.000724994
10 *646:io_wbs_adr_i[16] *615:11 0.000113443
11 *646:io_wbs_adr_i[16] *616:11 0.000440043
12 *646:io_wbs_adr_i[16] *617:11 0.000564145
13 *549:9 *646:io_wbs_adr_i[16] 0.000584963
*RES
1 wbs_adr_i[16] *646:io_wbs_adr_i[16] 43.9958 
*END

*D_NET *551 0.0133775
*CONN
*P wbs_adr_i[17] I
*I *646:io_wbs_adr_i[17] I *D CaravelTopLevel
*CAP
1 wbs_adr_i[17] 0.000600451
2 *646:io_wbs_adr_i[17] 0.000186543
3 *551:9 0.00245024
4 *551:7 0.00286415
5 *551:9 wbs_dat_o[15] 0.00111035
6 *551:9 *582:9 0.00423064
7 *551:9 *588:9 0.00116791
8 *551:9 *615:11 0.000121595
9 *551:9 *618:11 0.000645592
*RES
1 wbs_adr_i[17] *551:7 27.9257 
2 *551:7 *551:9 73.9914 
3 *551:9 *646:io_wbs_adr_i[17] 18.1175 
*END

*D_NET *552 0.0174259
*CONN
*P wbs_adr_i[18] I
*I *646:io_wbs_adr_i[18] I *D CaravelTopLevel
*CAP
1 wbs_adr_i[18] 0.00269922
2 *646:io_wbs_adr_i[18] 0.00269922
3 *646:io_wbs_adr_i[18] *646:io_wbs_dat_i[17] 0.00554723
4 *646:io_wbs_adr_i[18] *646:io_wbs_dat_i[18] 0.00624003
5 *646:io_wbs_adr_i[18] *557:11 0.000240148
6 *646:io_wbs_adr_i[14] *646:io_wbs_adr_i[18] 0
*RES
1 wbs_adr_i[18] *646:io_wbs_adr_i[18] 47.7566 
*END

*D_NET *553 0.01469
*CONN
*P wbs_adr_i[19] I
*I *646:io_wbs_adr_i[19] I *D CaravelTopLevel
*CAP
1 wbs_adr_i[19] 0.0030747
2 *646:io_wbs_adr_i[19] 0.0030747
3 *646:io_wbs_adr_i[19] wbs_dat_o[20] 0.00396078
4 *646:io_wbs_adr_i[19] wbs_dat_o[22] 0
5 *646:io_wbs_adr_i[19] *646:io_wbs_adr_i[20] 0.000486716
6 *646:io_wbs_adr_i[19] *646:io_wbs_adr_i[21] 0.00336132
7 *646:io_wbs_adr_i[19] *646:io_wbs_adr_i[23] 0
8 *646:io_wbs_adr_i[19] *646:io_wbs_dat_i[18] 0.000731767
*RES
1 wbs_adr_i[19] *646:io_wbs_adr_i[19] 44.9792 
*END

*D_NET *554 0.0227596
*CONN
*P wbs_adr_i[1] I
*I *646:io_wbs_adr_i[1] I *D CaravelTopLevel
*CAP
1 wbs_adr_i[1] 0.00296552
2 *646:io_wbs_adr_i[1] 0.000181131
3 *554:13 0.00314665
4 *554:13 *570:7 0
5 *554:13 *602:13 0.00128716
6 *554:13 *603:7 0
7 *554:13 *619:13 0.00810634
8 *543:13 *554:13 0.0070728
*RES
1 wbs_adr_i[1] *554:13 49.1897 
2 *554:13 *646:io_wbs_adr_i[1] 1.74 
*END

*D_NET *555 0.0165661
*CONN
*P wbs_adr_i[20] I
*I *646:io_wbs_adr_i[20] I *D CaravelTopLevel
*CAP
1 wbs_adr_i[20] 0.00247445
2 *646:io_wbs_adr_i[20] 0.00247445
3 *646:io_wbs_adr_i[20] wbs_dat_o[20] 0.00561662
4 *646:io_wbs_adr_i[20] wbs_dat_o[23] 0
5 *646:io_wbs_adr_i[20] *646:io_wbs_dat_i[18] 0.00401858
6 *646:io_wbs_adr_i[20] *646:io_wbs_dat_i[22] 0.00139417
7 *646:io_wbs_adr_i[20] *621:13 0.000101159
8 *646:io_wbs_adr_i[19] *646:io_wbs_adr_i[20] 0.000486716
*RES
1 wbs_adr_i[20] *646:io_wbs_adr_i[20] 46.8194 
*END

*D_NET *556 0.0142787
*CONN
*P wbs_adr_i[21] I
*I *646:io_wbs_adr_i[21] I *D CaravelTopLevel
*CAP
1 wbs_adr_i[21] 0.00289502
2 *646:io_wbs_adr_i[21] 0.00289502
3 *646:io_wbs_adr_i[21] wbs_dat_o[20] 0.00149377
4 *646:io_wbs_adr_i[21] wbs_dat_o[24] 0.00022949
5 *646:io_wbs_adr_i[21] *646:io_wbs_adr_i[23] 0.00312082
6 *646:io_wbs_adr_i[21] *646:io_wbs_dat_i[24] 0.000182116
7 *646:io_wbs_adr_i[21] *621:13 0.000101159
8 *646:io_wbs_adr_i[19] *646:io_wbs_adr_i[21] 0.00336132
*RES
1 wbs_adr_i[21] *646:io_wbs_adr_i[21] 44.464 
*END

*D_NET *557 0.0133437
*CONN
*P wbs_adr_i[22] I
*I *646:io_wbs_adr_i[22] I *D CaravelTopLevel
*CAP
1 wbs_adr_i[22] 0.000725897
2 *646:io_wbs_adr_i[22] 5.89151e-05
3 *557:13 0.00134916
4 *557:11 0.00201614
5 *557:11 *646:io_wbs_dat_i[18] 0
6 *557:13 wbs_dat_o[22] 0.000996169
7 *557:13 *586:9 0.00108005
8 *557:13 *589:9 0.00115828
9 *557:13 *591:9 0.000350166
10 *557:13 *617:11 0.000857644
11 *557:13 *621:13 0.00414046
12 *557:13 *621:17 0.00037064
13 *646:io_wbs_adr_i[18] *557:11 0.000240148
*RES
1 wbs_adr_i[22] *557:11 31.4057 
2 *557:11 *557:13 67.3214 
3 *557:13 *646:io_wbs_adr_i[22] 16.1082 
*END

*D_NET *558 0.0132381
*CONN
*P wbs_adr_i[23] I
*I *646:io_wbs_adr_i[23] I *D CaravelTopLevel
*CAP
1 wbs_adr_i[23] 0.00306331
2 *646:io_wbs_adr_i[23] 0.00306331
3 *646:io_wbs_adr_i[23] wbs_dat_o[26] 0.00082862
4 *646:io_wbs_adr_i[23] *646:io_wbs_adr_i[25] 0.00294916
5 *646:io_wbs_adr_i[23] *646:io_wbs_dat_i[24] 0.000111686
6 *646:io_wbs_adr_i[23] *626:11 0.000101159
7 *646:io_wbs_adr_i[19] *646:io_wbs_adr_i[23] 0
8 *646:io_wbs_adr_i[21] *646:io_wbs_adr_i[23] 0.00312082
*RES
1 wbs_adr_i[23] *646:io_wbs_adr_i[23] 44.0347 
*END

*D_NET *559 0.0154864
*CONN
*P wbs_adr_i[24] I
*I *646:io_wbs_adr_i[24] I *D CaravelTopLevel
*CAP
1 wbs_adr_i[24] 0.00214656
2 *646:io_wbs_adr_i[24] 0.00214656
3 *646:io_wbs_adr_i[24] wbs_dat_o[20] 0.000154505
4 *646:io_wbs_adr_i[24] wbs_dat_o[27] 0
5 *646:io_wbs_adr_i[24] *646:io_wbs_adr_i[27] 0.00090506
6 *646:io_wbs_adr_i[24] *646:io_wbs_dat_i[22] 0.00349393
7 *646:io_wbs_adr_i[24] *646:io_wbs_dat_i[24] 0.00591773
8 *646:io_wbs_adr_i[24] *646:io_wbs_dat_i[26] 0.000620873
9 *646:io_wbs_adr_i[24] *646:io_wbs_dat_i[27] 0
10 *646:io_wbs_adr_i[24] *626:11 0.000101159
*RES
1 wbs_adr_i[24] *646:io_wbs_adr_i[24] 45.8158 
*END

*D_NET *560 0.0133306
*CONN
*P wbs_adr_i[25] I
*I *646:io_wbs_adr_i[25] I *D CaravelTopLevel
*CAP
1 wbs_adr_i[25] 0.00245911
2 *646:io_wbs_adr_i[25] 0.00245911
3 *646:io_wbs_adr_i[25] wbs_dat_o[28] 0
4 *646:io_wbs_adr_i[25] *646:io_wbs_adr_i[26] 0.00449818
5 *646:io_wbs_adr_i[25] *646:io_wbs_dat_i[24] 0.000225296
6 *646:io_wbs_adr_i[25] *646:io_wbs_dat_i[25] 0.000638557
7 *646:io_wbs_adr_i[25] *646:io_wbs_dat_i[27] 0
8 *646:io_wbs_adr_i[25] *626:11 0.000101159
9 *646:io_wbs_adr_i[23] *646:io_wbs_adr_i[25] 0.00294916
*RES
1 wbs_adr_i[25] *646:io_wbs_adr_i[25] 43.6053 
*END

*D_NET *561 0.0149334
*CONN
*P wbs_adr_i[26] I
*I *646:io_wbs_adr_i[26] I *D CaravelTopLevel
*CAP
1 wbs_adr_i[26] 0.00210122
2 *646:io_wbs_adr_i[26] 0.00210122
3 *646:io_wbs_adr_i[26] wbs_dat_o[29] 0
4 *646:io_wbs_adr_i[26] *646:io_wbs_adr_i[28] 0.000586818
5 *646:io_wbs_adr_i[26] *646:io_wbs_dat_i[22] 7.19154e-05
6 *646:io_wbs_adr_i[26] *646:io_wbs_dat_i[25] 0.00506022
7 *646:io_wbs_adr_i[26] *646:io_wbs_dat_i[27] 0
8 *646:io_wbs_adr_i[26] *646:io_wbs_dat_i[29] 0.000311527
9 *646:io_wbs_adr_i[26] *626:11 0.000202319
10 *646:io_wbs_adr_i[25] *646:io_wbs_adr_i[26] 0.00449818
*RES
1 wbs_adr_i[26] *646:io_wbs_adr_i[26] 43.4336 
*END

*D_NET *562 0.0150737
*CONN
*P wbs_adr_i[27] I
*I *646:io_wbs_adr_i[27] I *D CaravelTopLevel
*CAP
1 wbs_adr_i[27] 0.00243008
2 *646:io_wbs_adr_i[27] 0.00243008
3 *646:io_wbs_adr_i[27] wbs_dat_o[30] 0
4 *646:io_wbs_adr_i[27] *646:io_wbs_adr_i[28] 0.000181088
5 *646:io_wbs_adr_i[27] *646:io_wbs_dat_i[24] 0.000283177
6 *646:io_wbs_adr_i[27] *646:io_wbs_dat_i[25] 0.000147226
7 *646:io_wbs_adr_i[27] *646:io_wbs_dat_i[26] 0.00482552
8 *646:io_wbs_adr_i[27] *646:io_wbs_dat_i[28] 0.00387145
9 *646:io_wbs_adr_i[27] *646:io_wbs_dat_i[30] 0
10 *646:io_wbs_adr_i[24] *646:io_wbs_adr_i[27] 0.00090506
*RES
1 wbs_adr_i[27] *646:io_wbs_adr_i[27] 47.3012 
*END

*D_NET *563 0.0129758
*CONN
*P wbs_adr_i[28] I
*I *646:io_wbs_adr_i[28] I *D CaravelTopLevel
*CAP
1 wbs_adr_i[28] 0.00264777
2 *646:io_wbs_adr_i[28] 0.00264777
3 *646:io_wbs_adr_i[28] wbs_dat_o[28] 0
4 *646:io_wbs_adr_i[28] *646:io_wbs_adr_i[30] 0.0022986
5 *646:io_wbs_adr_i[28] *646:io_wbs_dat_i[25] 0.00130407
6 *646:io_wbs_adr_i[28] *646:io_wbs_dat_i[27] 0
7 *646:io_wbs_adr_i[28] *646:io_wbs_dat_i[28] 0.00285379
8 *646:io_wbs_adr_i[28] *600:9 0.000455896
9 *646:io_wbs_adr_i[26] *646:io_wbs_adr_i[28] 0.000586818
10 *646:io_wbs_adr_i[27] *646:io_wbs_adr_i[28] 0.000181088
*RES
1 wbs_adr_i[28] *646:io_wbs_adr_i[28] 43.6688 
*END

*D_NET *564 0.0146143
*CONN
*P wbs_adr_i[29] I
*I *646:io_wbs_adr_i[29] I *D CaravelTopLevel
*CAP
1 wbs_adr_i[29] 0.00227137
2 *646:io_wbs_adr_i[29] 0.00227137
3 *646:io_wbs_adr_i[29] wbs_dat_o[27] 0.000325764
4 *646:io_wbs_adr_i[29] wbs_dat_o[28] 0.00521644
5 *646:io_wbs_adr_i[29] wbs_dat_o[29] 0.00452937
6 *646:io_wbs_adr_i[29] *646:io_wbs_dat_i[25] 0
7 *646:io_la_data_in[0] *646:io_wbs_adr_i[29] 0
*RES
1 wbs_adr_i[29] *646:io_wbs_adr_i[29] 42.7467 
*END

*D_NET *565 0.0212332
*CONN
*P wbs_adr_i[2] I
*I *646:io_wbs_adr_i[2] I *D CaravelTopLevel
*CAP
1 wbs_adr_i[2] 0.00493167
2 *646:io_wbs_adr_i[2] 0.00493167
3 *646:io_wbs_adr_i[2] wbs_dat_o[0] 0.000258185
4 *646:io_wbs_adr_i[2] wbs_dat_o[6] 0
5 *646:io_wbs_adr_i[2] *646:io_wbs_adr_i[3] 0.00661066
6 *646:io_wbs_adr_i[2] *646:io_wbs_dat_i[0] 0.000910038
7 *646:io_wbs_adr_i[2] *575:9 0.00114162
8 *646:io_wbs_adr_i[2] *601:11 0.000140203
9 *646:io_wbs_adr_i[2] *601:13 0.000560841
10 *646:io_wbs_adr_i[2] *603:9 0.000741103
11 *646:io_wbs_adr_i[2] *644:9 0.000319433
12 *646:io_wb_clk_i *646:io_wbs_adr_i[2] 0.00068774
*RES
1 wbs_adr_i[2] *646:io_wbs_adr_i[2] 47.3312 
*END

*D_NET *566 0.0104777
*CONN
*P wbs_adr_i[30] I
*I *646:io_wbs_adr_i[30] I *D CaravelTopLevel
*CAP
1 wbs_adr_i[30] 0.00295181
2 *646:io_wbs_adr_i[30] 0.00295181
3 *646:io_wbs_adr_i[30] *646:io_wbs_adr_i[31] 0.000734101
4 *646:io_wbs_adr_i[30] *646:io_wbs_dat_i[26] 0
5 *646:io_wbs_adr_i[30] *646:io_wbs_dat_i[28] 0.00154135
6 la_data_out[0] *646:io_wbs_adr_i[30] 0
7 la_data_out[1] *646:io_wbs_adr_i[30] 0
8 *646:io_la_data_in[1] *646:io_wbs_adr_i[30] 0
9 *646:io_wbs_adr_i[28] *646:io_wbs_adr_i[30] 0.0022986
*RES
1 wbs_adr_i[30] *646:io_wbs_adr_i[30] 42.4891 
*END

*D_NET *567 0.00871565
*CONN
*P wbs_adr_i[31] I
*I *646:io_wbs_adr_i[31] I *D CaravelTopLevel
*CAP
1 wbs_adr_i[31] 0.0035241
2 *646:io_wbs_adr_i[31] 0.0035241
3 *646:io_wbs_adr_i[31] *646:io_wbs_dat_i[28] 0.000534265
4 la_data_out[2] *646:io_wbs_adr_i[31] 0
5 *646:io_la_data_in[2] *646:io_wbs_adr_i[31] 0.000297923
6 *646:io_wbs_adr_i[30] *646:io_wbs_adr_i[31] 0.000734101
7 *439:9 *646:io_wbs_adr_i[31] 0.000101159
*RES
1 wbs_adr_i[31] *646:io_wbs_adr_i[31] 44.8976 
*END

*D_NET *568 0.0227465
*CONN
*P wbs_adr_i[3] I
*I *646:io_wbs_adr_i[3] I *D CaravelTopLevel
*CAP
1 wbs_adr_i[3] 0.00474335
2 *646:io_wbs_adr_i[3] 0.00474335
3 *646:io_wbs_adr_i[3] wbs_dat_o[0] 0.00163555
4 *646:io_wbs_adr_i[3] wbs_dat_o[7] 3.09703e-05
5 *646:io_wbs_adr_i[3] *646:io_wbs_dat_i[2] 0.00108974
6 *646:io_wbs_adr_i[3] *646:io_wbs_dat_i[3] 0
7 *646:io_wbs_adr_i[3] *572:11 0.000120171
8 *646:io_wbs_adr_i[3] *601:13 0.000240343
9 *646:io_wbs_adr_i[3] *603:9 0.000624532
10 *646:io_wbs_adr_i[3] *605:9 0.000104089
11 *646:io_wbs_adr_i[3] *630:11 0.000546489
12 *646:io_wbs_adr_i[3] *633:11 0.00068434
13 *646:io_wbs_adr_i[3] *634:11 0.000201444
14 *646:io_wbs_adr_i[3] *635:11 0.000582107
15 *646:io_wbs_adr_i[3] *641:9 0.000789398
16 *646:io_wbs_adr_i[2] *646:io_wbs_adr_i[3] 0.00661066
*RES
1 wbs_adr_i[3] *646:io_wbs_adr_i[3] 46.9878 
*END

*D_NET *569 0.0162962
*CONN
*P wbs_adr_i[4] I
*I *646:io_wbs_adr_i[4] I *D CaravelTopLevel
*CAP
1 wbs_adr_i[4] 0.0038429
2 *646:io_wbs_adr_i[4] 0.000184339
3 *569:17 0.00402724
4 *569:17 wbs_dat_o[8] 0
5 *569:17 *646:io_wbs_adr_i[9] 0
6 *569:17 *646:io_wbs_dat_i[6] 0.00469218
7 *569:17 *571:13 0.000181088
8 *569:17 *602:13 0.000217771
9 *569:17 *619:13 0.0031111
10 *646:io_wbs_adr_i[0] *569:17 3.95309e-05
*RES
1 wbs_adr_i[4] *569:17 48.9818 
2 *569:17 *646:io_wbs_adr_i[4] 1.74 
*END

*D_NET *570 0.0189666
*CONN
*P wbs_adr_i[5] I
*I *646:io_wbs_adr_i[5] I *D CaravelTopLevel
*CAP
1 wbs_adr_i[5] 0.000775099
2 *646:io_wbs_adr_i[5] 0.000228181
3 *570:9 0.0015109
4 *570:7 0.00205782
5 *570:7 *646:io_wbs_sel_i[0] 0
6 *570:9 *646:io_wbs_adr_i[9] 0.000208861
7 *570:9 *646:io_wbs_dat_i[2] 0.00016679
8 *570:9 *587:9 0.000770767
9 *570:9 *606:13 0.00241529
10 *570:9 *607:11 0.000300142
11 *570:9 *634:11 0.00770998
12 *570:9 *643:13 0.00282281
13 *554:13 *570:7 0
*RES
1 wbs_adr_i[5] *570:7 30.3907 
2 *570:7 *570:9 88.2843 
3 *570:9 *646:io_wbs_adr_i[5] 17.0611 
*END

*D_NET *571 0.0201964
*CONN
*P wbs_adr_i[6] I
*I *646:io_wbs_adr_i[6] I *D CaravelTopLevel
*CAP
1 wbs_adr_i[6] 0.00261893
2 *646:io_wbs_adr_i[6] 0.000150961
3 *571:13 0.00276989
4 *571:13 wbs_dat_o[10] 0.000118833
5 *571:13 *646:io_wbs_dat_i[6] 0.00801169
6 *571:13 *602:13 0.00558794
7 *571:13 *638:17 0.000757064
8 *646:io_wbs_adr_i[11] *571:13 0
9 *569:17 *571:13 0.000181088
*RES
1 wbs_adr_i[6] *571:13 48.3393 
2 *571:13 *646:io_wbs_adr_i[6] 1.74 
*END

*D_NET *572 0.0180023
*CONN
*P wbs_adr_i[7] I
*I *646:io_wbs_adr_i[7] I *D CaravelTopLevel
*CAP
1 wbs_adr_i[7] 0.000648763
2 *646:io_wbs_adr_i[7] 0.000463249
3 *572:17 0.00236571
4 *572:15 0.00226423
5 *572:11 0.000951763
6 *572:7 0.00123876
7 *646:io_wbs_adr_i[7] wbs_dat_o[11] 0.000736136
8 *572:11 *601:13 0.00160789
9 *572:11 *603:9 0.000242321
10 *572:11 *605:9 0.0021286
11 *572:11 *630:11 5.58003e-05
12 *572:11 *635:11 0.000288637
13 *572:15 wbs_dat_o[8] 8.87698e-05
14 *572:15 *606:11 0
15 *572:17 *603:17 0.00261301
16 *572:17 *638:11 0.00166082
17 *572:17 *639:11 0.000527697
18 *646:io_wbs_adr_i[3] *572:11 0.000120171
*RES
1 wbs_adr_i[7] *572:7 28.63 
2 *572:7 *572:11 44.2071 
3 *572:11 *572:15 23.9486 
4 *572:15 *572:17 57.3164 
5 *572:17 *646:io_wbs_adr_i[7] 25.7404 
*END

*D_NET *573 0.0191649
*CONN
*P wbs_adr_i[8] I
*I *646:io_wbs_adr_i[8] I *D CaravelTopLevel
*CAP
1 wbs_adr_i[8] 0.0010749
2 *646:io_wbs_adr_i[8] 0.000134224
3 *573:17 0.00119994
4 *573:15 0.00214062
5 *573:15 *603:15 0
6 *573:15 *606:13 6.74232e-05
7 *573:15 *636:13 1.07227e-05
8 *573:15 *636:15 0.00103304
9 *573:15 *643:13 0.000900305
10 *573:17 *646:io_wbs_adr_i[9] 0.000617449
11 *573:17 *606:13 0.00678573
12 *573:17 *636:13 0.00460384
13 *573:17 *636:15 1.73995e-05
14 *573:17 *637:11 0.000579289
*RES
1 wbs_adr_i[8] *573:15 44.7664 
2 *573:15 *573:17 72.5621 
3 *573:17 *646:io_wbs_adr_i[8] 17.0611 
*END

*D_NET *574 0.0227485
*CONN
*P wbs_adr_i[9] I
*I *646:io_wbs_adr_i[9] I *D CaravelTopLevel
*CAP
1 wbs_adr_i[9] 0.00594787
2 *646:io_wbs_adr_i[9] 0.00594787
3 *646:io_wbs_adr_i[9] *602:13 0
4 *646:io_wbs_adr_i[9] *605:9 0.00066104
5 *646:io_wbs_adr_i[9] *606:13 0.00082245
6 *646:io_wbs_adr_i[9] *607:11 0.000209912
7 *646:io_wbs_adr_i[9] *607:13 0.00080274
8 *646:io_wbs_adr_i[9] *609:11 0.000750989
9 *646:io_wbs_adr_i[9] *610:11 0.000644825
10 *646:io_wbs_adr_i[9] *634:11 0.000144186
11 *646:io_wbs_adr_i[9] *635:11 0.000539083
12 *646:io_wbs_adr_i[9] *636:13 0.000428116
13 *646:io_wbs_adr_i[9] *638:19 0.000313736
14 *646:io_wbs_adr_i[11] *646:io_wbs_adr_i[9] 0.00456389
15 *544:9 *646:io_wbs_adr_i[9] 0.000145518
16 *569:17 *646:io_wbs_adr_i[9] 0
17 *570:9 *646:io_wbs_adr_i[9] 0.000208861
18 *573:17 *646:io_wbs_adr_i[9] 0.000617449
*RES
1 wbs_adr_i[9] *646:io_wbs_adr_i[9] 45.5414 
*END

*D_NET *575 0.0186184
*CONN
*P wbs_cyc_i I
*I *646:io_wbs_cyc_i I *D CaravelTopLevel
*CAP
1 wbs_cyc_i 0.000583428
2 *646:io_wbs_cyc_i 0.000292356
3 *575:9 0.00331805
4 *575:7 0.00360913
5 *646:io_wbs_cyc_i *601:11 3.41998e-06
6 *575:9 *644:9 0.00849144
7 *646:io_wb_clk_i *575:9 0.00117892
8 *646:io_wbs_adr_i[2] *575:9 0.00114162
*RES
1 wbs_cyc_i *575:7 27.9257 
2 *575:7 *575:9 97.3364 
3 *575:9 *646:io_wbs_cyc_i 18.1175 
*END

*D_NET *576 0.0163869
*CONN
*P wbs_dat_i[0] I
*I *646:io_wbs_dat_i[0] I *D CaravelTopLevel
*CAP
1 wbs_dat_i[0] 0.0047327
2 *646:io_wbs_dat_i[0] 0.0047327
3 *646:io_wb_clk_i *646:io_wbs_dat_i[0] 0
4 *646:io_wb_rst_i *646:io_wbs_dat_i[0] 0.00601147
5 *646:io_wbs_adr_i[2] *646:io_wbs_dat_i[0] 0.000910038
*RES
1 wbs_dat_i[0] *646:io_wbs_dat_i[0] 49.3584 
*END

*D_NET *577 0.0158455
*CONN
*P wbs_dat_i[10] I
*I *646:io_wbs_dat_i[10] I *D CaravelTopLevel
*CAP
1 wbs_dat_i[10] 0.000602389
2 *646:io_wbs_dat_i[10] 9.51059e-05
3 *577:9 0.00270533
4 *577:7 0.00321261
5 *646:io_wbs_dat_i[10] wbs_dat_o[14] 0
6 *577:7 *646:io_wbs_dat_i[5] 0
7 *646:io_wbs_adr_i[11] *577:9 0.00175229
8 *544:9 *577:9 0.0071029
9 *546:9 *577:9 0.000374843
10 *549:7 *646:io_wbs_dat_i[10] 0
*RES
1 wbs_dat_i[10] *577:7 27.9257 
2 *577:7 *577:9 83.7582 
3 *577:9 *646:io_wbs_dat_i[10] 16.305 
*END

*D_NET *578 0.0145292
*CONN
*P wbs_dat_i[11] I
*I *646:io_wbs_dat_i[11] I *D CaravelTopLevel
*CAP
1 wbs_dat_i[11] 0.00410041
2 *646:io_wbs_dat_i[11] 0.00410041
3 *646:io_wbs_dat_i[11] wbs_dat_o[15] 0.000362832
4 *646:io_wbs_dat_i[11] *646:io_wbs_dat_i[12] 0.00596551
5 *646:io_wbs_adr_i[11] *646:io_wbs_dat_i[11] 0
6 *646:io_wbs_adr_i[16] *646:io_wbs_dat_i[11] 0
*RES
1 wbs_dat_i[11] *646:io_wbs_dat_i[11] 49.1909 
*END

*D_NET *579 0.0182323
*CONN
*P wbs_dat_i[12] I
*I *646:io_wbs_dat_i[12] I *D CaravelTopLevel
*CAP
1 wbs_dat_i[12] 0.00270831
2 *646:io_wbs_dat_i[12] 0.00270831
3 *646:io_wbs_dat_i[12] wbs_dat_o[16] 0.000366672
4 *646:io_wbs_dat_i[12] *580:17 0.0058025
5 *646:io_wbs_dat_i[12] *583:7 0
6 *646:io_wbs_dat_i[12] *611:11 0.000138492
7 *646:io_wbs_adr_i[13] *646:io_wbs_dat_i[12] 0.000310436
8 *646:io_wbs_adr_i[16] *646:io_wbs_dat_i[12] 0.000232058
9 *646:io_wbs_dat_i[11] *646:io_wbs_dat_i[12] 0.00596551
*RES
1 wbs_dat_i[12] *646:io_wbs_dat_i[12] 49.4866 
*END

*D_NET *580 0.0184624
*CONN
*P wbs_dat_i[13] I
*I *646:io_wbs_dat_i[13] I *D CaravelTopLevel
*CAP
1 wbs_dat_i[13] 0.00239639
2 *646:io_wbs_dat_i[13] 0.000164649
3 *580:17 0.00256104
4 *580:17 wbs_dat_o[17] 0.000223827
5 *580:17 *646:io_wbs_dat_i[17] 0.000285153
6 *646:io_wbs_adr_i[13] *580:17 0.00702885
7 *646:io_wbs_dat_i[12] *580:17 0.0058025
*RES
1 wbs_dat_i[13] *580:17 48.3296 
2 *580:17 *646:io_wbs_dat_i[13] 1.74 
*END

*D_NET *581 0.0182932
*CONN
*P wbs_dat_i[14] I
*I *646:io_wbs_dat_i[14] I *D CaravelTopLevel
*CAP
1 wbs_dat_i[14] 0.000779888
2 *646:io_wbs_dat_i[14] 0.000183551
3 *581:9 0.00116941
4 *581:7 0.00176575
5 *581:7 *639:9 0
6 *581:9 *610:11 0.000293178
7 *581:9 *612:11 0.00612083
8 *581:9 *613:11 0.00665526
9 *646:io_wbs_adr_i[10] *581:7 0
10 *646:io_wbs_adr_i[11] *581:9 0.000117156
11 *646:io_wbs_adr_i[16] *581:9 0.000610983
12 *549:9 *581:9 0.000597202
*RES
1 wbs_dat_i[14] *581:7 30.3907 
2 *581:7 *581:9 76.85 
3 *581:9 *646:io_wbs_dat_i[14] 17.0611 
*END

*D_NET *582 0.0159225
*CONN
*P wbs_dat_i[15] I
*I *646:io_wbs_dat_i[15] I *D CaravelTopLevel
*CAP
1 wbs_dat_i[15] 0.000619037
2 *646:io_wbs_dat_i[15] 0.000240829
3 *582:9 0.0019172
4 *582:7 0.00229541
5 *646:io_wbs_dat_i[15] *617:11 0.000101159
6 *582:9 wbs_dat_o[15] 0.0011552
7 *582:9 wbs_dat_o[16] 0.00145755
8 *582:9 *611:11 0.00028617
9 *582:9 *615:11 0.00183608
10 *546:9 *582:9 0.00178327
11 *551:9 *582:9 0.00423064
*RES
1 wbs_dat_i[15] *582:7 28.2779 
2 *582:7 *582:9 75.8971 
3 *582:9 *646:io_wbs_dat_i[15] 17.7654 
*END

*D_NET *583 0.0157827
*CONN
*P wbs_dat_i[16] I
*I *646:io_wbs_dat_i[16] I *D CaravelTopLevel
*CAP
1 wbs_dat_i[16] 0.000716641
2 *646:io_wbs_dat_i[16] 0.000137464
3 *583:9 0.00137323
4 *583:7 0.0019524
5 *583:9 wbs_dat_o[16] 0.000336327
6 *583:9 *586:9 0.00102437
7 *583:9 *611:11 0.000592303
8 *583:9 *613:11 0.00429507
9 *583:9 *615:11 0.00109719
10 *583:9 *616:11 2.61402e-05
11 *583:9 *617:11 0.00295451
12 *646:io_wbs_adr_i[12] *583:7 4.36547e-05
13 *646:io_wbs_adr_i[16] *583:9 0.0011016
14 *646:io_wbs_dat_i[12] *583:7 0
15 *549:9 *583:9 0.0001318
*RES
1 wbs_dat_i[16] *583:7 29.6864 
2 *583:7 *583:9 74.4679 
3 *583:9 *646:io_wbs_dat_i[16] 17.0611 
*END

*D_NET *584 0.0135075
*CONN
*P wbs_dat_i[17] I
*I *646:io_wbs_dat_i[17] I *D CaravelTopLevel
*CAP
1 wbs_dat_i[17] 0.00356083
2 *646:io_wbs_dat_i[17] 0.00356083
3 *646:io_wbs_dat_i[17] *589:7 0.00055347
4 *646:io_wbs_adr_i[18] *646:io_wbs_dat_i[17] 0.00554723
5 *580:17 *646:io_wbs_dat_i[17] 0.000285153
*RES
1 wbs_dat_i[17] *646:io_wbs_dat_i[17] 47.0747 
*END

*D_NET *585 0.016376
*CONN
*P wbs_dat_i[18] I
*I *646:io_wbs_dat_i[18] I *D CaravelTopLevel
*CAP
1 wbs_dat_i[18] 0.00262815
2 *646:io_wbs_dat_i[18] 0.00262815
3 *646:io_wbs_dat_i[18] *646:io_wbs_dat_i[22] 2.81641e-05
4 *646:io_wbs_dat_i[18] *617:11 0.000101159
5 *646:io_wbs_adr_i[18] *646:io_wbs_dat_i[18] 0.00624003
6 *646:io_wbs_adr_i[19] *646:io_wbs_dat_i[18] 0.000731767
7 *646:io_wbs_adr_i[20] *646:io_wbs_dat_i[18] 0.00401858
8 *557:11 *646:io_wbs_dat_i[18] 0
*RES
1 wbs_dat_i[18] *646:io_wbs_dat_i[18] 47.0179 
*END

*D_NET *586 0.0122424
*CONN
*P wbs_dat_i[19] I
*I *646:io_wbs_dat_i[19] I *D CaravelTopLevel
*CAP
1 wbs_dat_i[19] 0.000766514
2 *646:io_wbs_dat_i[19] 0.000165624
3 *586:9 0.00149936
4 *586:7 0.00210026
5 *586:9 wbs_dat_o[22] 0.000113998
6 *586:9 *589:9 0.00322344
7 *586:9 *616:11 0.00123459
8 *586:9 *617:11 0.00103418
9 *557:13 *586:9 0.00108005
10 *583:9 *586:9 0.00102437
*RES
1 wbs_dat_i[19] *586:7 30.3907 
2 *586:7 *586:9 71.1329 
3 *586:9 *646:io_wbs_dat_i[19] 17.0611 
*END

*D_NET *587 0.0172396
*CONN
*P wbs_dat_i[1] I
*I *646:io_wbs_dat_i[1] I *D CaravelTopLevel
*CAP
1 wbs_dat_i[1] 0.000787479
2 *646:io_wbs_dat_i[1] 0.000178575
3 *587:9 0.00232638
4 *587:7 0.00293529
5 *587:9 *646:io_wbs_dat_i[2] 0.00143224
6 *587:9 *633:11 0.000696685
7 *587:9 *634:11 0.000320438
8 *587:9 *640:9 0.00306045
9 *587:9 *642:9 0.00134175
10 *587:9 *643:13 0.00295583
11 *542:8 *587:9 0.000433762
12 *570:9 *587:9 0.000770767
*RES
1 wbs_dat_i[1] *587:7 30.7429 
2 *587:7 *587:9 94.0014 
3 *587:9 *646:io_wbs_dat_i[1] 17.0611 
*END

*D_NET *588 0.0135576
*CONN
*P wbs_dat_i[20] I
*I *646:io_wbs_dat_i[20] I *D CaravelTopLevel
*CAP
1 wbs_dat_i[20] 0.000625492
2 *646:io_wbs_dat_i[20] 7.33594e-05
3 *588:9 0.0020708
4 *588:7 0.00262293
5 *646:io_wbs_dat_i[20] wbs_dat_o[20] 0
6 *588:9 wbs_dat_o[22] 0.000474837
7 *588:9 *591:9 0.000140172
8 *588:9 *618:11 0.00541977
9 *588:9 *623:11 0.00096237
10 *551:9 *588:9 0.00116791
*RES
1 wbs_dat_i[20] *588:7 28.2779 
2 *588:7 *588:9 71.3711 
3 *588:9 *646:io_wbs_dat_i[20] 15.9529 
*END

*D_NET *589 0.0113148
*CONN
*P wbs_dat_i[21] I
*I *646:io_wbs_dat_i[21] I *D CaravelTopLevel
*CAP
1 wbs_dat_i[21] 0.000594269
2 *646:io_wbs_dat_i[21] 0.000132336
3 *589:9 0.00218155
4 *589:7 0.00264348
5 *589:9 wbs_dat_o[22] 0.000525401
6 *589:9 *616:11 0.000302545
7 *646:io_wbs_dat_i[17] *589:7 0.00055347
8 *557:13 *589:9 0.00115828
9 *586:9 *589:9 0.00322344
*RES
1 wbs_dat_i[21] *589:7 30.7429 
2 *589:7 *589:9 68.7507 
3 *589:9 *646:io_wbs_dat_i[21] 17.0611 
*END

*D_NET *590 0.0119762
*CONN
*P wbs_dat_i[22] I
*I *646:io_wbs_dat_i[22] I *D CaravelTopLevel
*CAP
1 wbs_dat_i[22] 0.00339395
2 *646:io_wbs_dat_i[22] 0.00339395
3 *646:io_wbs_dat_i[22] wbs_dat_o[20] 0.000200135
4 *646:io_wbs_adr_i[20] *646:io_wbs_dat_i[22] 0.00139417
5 *646:io_wbs_adr_i[24] *646:io_wbs_dat_i[22] 0.00349393
6 *646:io_wbs_adr_i[26] *646:io_wbs_dat_i[22] 7.19154e-05
7 *646:io_wbs_dat_i[18] *646:io_wbs_dat_i[22] 2.81641e-05
*RES
1 wbs_dat_i[22] *646:io_wbs_dat_i[22] 48.7221 
*END

*D_NET *591 0.0151727
*CONN
*P wbs_dat_i[23] I
*I *646:io_wbs_dat_i[23] I *D CaravelTopLevel
*CAP
1 wbs_dat_i[23] 0.000686086
2 *646:io_wbs_dat_i[23] 0.000165715
3 *591:9 0.00133568
4 *591:7 0.00185605
5 *646:io_wbs_dat_i[23] *626:11 0.000101159
6 *591:7 *618:9 0
7 *591:9 wbs_dat_o[22] 0.000597416
8 *591:9 *618:11 0.000276734
9 *591:9 *621:13 0.00346988
10 *591:9 *623:11 0.00560791
11 *591:9 *626:11 0.000585713
12 *557:13 *591:9 0.000350166
13 *588:9 *591:9 0.000140172
*RES
1 wbs_dat_i[23] *591:7 28.9821 
2 *591:7 *591:9 65.8921 
3 *591:9 *646:io_wbs_dat_i[23] 17.0611 
*END

*D_NET *592 0.0158603
*CONN
*P wbs_dat_i[24] I
*I *646:io_wbs_dat_i[24] I *D CaravelTopLevel
*CAP
1 wbs_dat_i[24] 0.00209557
2 *646:io_wbs_dat_i[24] 0.00209557
3 *646:io_wbs_dat_i[24] wbs_dat_o[20] 0.000311369
4 *646:io_wbs_dat_i[24] wbs_dat_o[27] 0
5 *646:io_wbs_dat_i[24] *646:io_wbs_dat_i[25] 0.00453661
6 *646:io_wbs_dat_i[24] *626:11 0.000101159
7 *646:io_wbs_adr_i[21] *646:io_wbs_dat_i[24] 0.000182116
8 *646:io_wbs_adr_i[23] *646:io_wbs_dat_i[24] 0.000111686
9 *646:io_wbs_adr_i[24] *646:io_wbs_dat_i[24] 0.00591773
10 *646:io_wbs_adr_i[25] *646:io_wbs_dat_i[24] 0.000225296
11 *646:io_wbs_adr_i[27] *646:io_wbs_dat_i[24] 0.000283177
*RES
1 wbs_dat_i[24] *646:io_wbs_dat_i[24] 45.0467 
*END

*D_NET *593 0.015769
*CONN
*P wbs_dat_i[25] I
*I *646:io_wbs_dat_i[25] I *D CaravelTopLevel
*CAP
1 wbs_dat_i[25] 0.00204118
2 *646:io_wbs_dat_i[25] 0.00204118
3 *646:io_wbs_dat_i[25] wbs_dat_o[28] 0
4 *646:io_wbs_adr_i[25] *646:io_wbs_dat_i[25] 0.000638557
5 *646:io_wbs_adr_i[26] *646:io_wbs_dat_i[25] 0.00506022
6 *646:io_wbs_adr_i[27] *646:io_wbs_dat_i[25] 0.000147226
7 *646:io_wbs_adr_i[28] *646:io_wbs_dat_i[25] 0.00130407
8 *646:io_wbs_adr_i[29] *646:io_wbs_dat_i[25] 0
9 *646:io_wbs_dat_i[24] *646:io_wbs_dat_i[25] 0.00453661
*RES
1 wbs_dat_i[25] *646:io_wbs_dat_i[25] 43.1289 
*END

*D_NET *594 0.0120513
*CONN
*P wbs_dat_i[26] I
*I *646:io_wbs_dat_i[26] I *D CaravelTopLevel
*CAP
1 wbs_dat_i[26] 0.00318661
2 *646:io_wbs_dat_i[26] 0.00318661
3 *646:io_wbs_dat_i[26] wbs_dat_o[29] 0.00023171
4 *646:io_wbs_adr_i[24] *646:io_wbs_dat_i[26] 0.000620873
5 *646:io_wbs_adr_i[27] *646:io_wbs_dat_i[26] 0.00482552
6 *646:io_wbs_adr_i[30] *646:io_wbs_dat_i[26] 0
*RES
1 wbs_dat_i[26] *646:io_wbs_dat_i[26] 45.928 
*END

*D_NET *595 0.0112794
*CONN
*P wbs_dat_i[27] I
*I *646:io_wbs_dat_i[27] I *D CaravelTopLevel
*CAP
1 wbs_dat_i[27] 0.00375492
2 *646:io_wbs_dat_i[27] 0.00375492
3 *646:io_wbs_dat_i[27] wbs_dat_o[27] 0
4 *646:io_wbs_dat_i[27] wbs_dat_o[28] 0.00357146
5 *646:io_wbs_dat_i[27] wbs_dat_o[30] 0.000198144
6 *646:io_wbs_adr_i[24] *646:io_wbs_dat_i[27] 0
7 *646:io_wbs_adr_i[25] *646:io_wbs_dat_i[27] 0
8 *646:io_wbs_adr_i[26] *646:io_wbs_dat_i[27] 0
9 *646:io_wbs_adr_i[28] *646:io_wbs_dat_i[27] 0
*RES
1 wbs_dat_i[27] *646:io_wbs_dat_i[27] 43.0901 
*END

*D_NET *596 0.013728
*CONN
*P wbs_dat_i[28] I
*I *646:io_wbs_dat_i[28] I *D CaravelTopLevel
*CAP
1 wbs_dat_i[28] 0.0022894
2 *646:io_wbs_dat_i[28] 0.0022894
3 *646:io_wbs_dat_i[28] wbs_dat_o[31] 0.000348279
4 *646:io_wbs_dat_i[28] *600:9 0
5 *646:io_wbs_adr_i[27] *646:io_wbs_dat_i[28] 0.00387145
6 *646:io_wbs_adr_i[28] *646:io_wbs_dat_i[28] 0.00285379
7 *646:io_wbs_adr_i[30] *646:io_wbs_dat_i[28] 0.00154135
8 *646:io_wbs_adr_i[31] *646:io_wbs_dat_i[28] 0.000534265
*RES
1 wbs_dat_i[28] *646:io_wbs_dat_i[28] 44.043 
*END

*D_NET *597 0.0137927
*CONN
*P wbs_dat_i[29] I
*I *646:io_wbs_dat_i[29] I *D CaravelTopLevel
*CAP
1 wbs_dat_i[29] 0.00361464
2 *646:io_wbs_dat_i[29] 0.00361464
3 *646:io_wbs_dat_i[29] wbs_dat_o[27] 0.000831497
4 *646:io_wbs_dat_i[29] *646:io_wbs_dat_i[30] 0.00397494
5 *646:io_wbs_dat_i[29] *626:11 0.000537341
6 *646:io_wbs_dat_i[29] *631:11 0.000908111
7 *646:io_wbs_adr_i[26] *646:io_wbs_dat_i[29] 0.000311527
*RES
1 wbs_dat_i[29] *646:io_wbs_dat_i[29] 41.0763 
*END

*D_NET *598 0.0197007
*CONN
*P wbs_dat_i[2] I
*I *646:io_wbs_dat_i[2] I *D CaravelTopLevel
*CAP
1 wbs_dat_i[2] 0.00424631
2 *646:io_wbs_dat_i[2] 0.00424631
3 *646:io_wbs_dat_i[2] wbs_dat_o[0] 0.00511399
4 *646:io_wbs_dat_i[2] *634:11 0.000546545
5 *646:io_wbs_dat_i[2] *643:13 0.000971651
6 *646:io_wbs_adr_i[3] *646:io_wbs_dat_i[2] 0.00108974
7 *542:8 *646:io_wbs_dat_i[2] 0.00188716
8 *570:9 *646:io_wbs_dat_i[2] 0.00016679
9 *587:9 *646:io_wbs_dat_i[2] 0.00143224
*RES
1 wbs_dat_i[2] *646:io_wbs_dat_i[2] 48.5815 
*END

*D_NET *599 0.0155007
*CONN
*P wbs_dat_i[30] I
*I *646:io_wbs_dat_i[30] I *D CaravelTopLevel
*CAP
1 wbs_dat_i[30] 0.00269903
2 *646:io_wbs_dat_i[30] 0.00269903
3 *646:io_wbs_dat_i[30] wbs_dat_o[27] 0.00129248
4 *646:io_wbs_dat_i[30] wbs_dat_o[29] 0.000433895
5 *646:io_wbs_dat_i[30] *631:11 0.00011416
6 *646:io_wbs_dat_i[30] *632:11 0.000734571
7 *646:io_la_data_in[0] *646:io_wbs_dat_i[30] 0.00268845
8 *646:io_la_data_in[1] *646:io_wbs_dat_i[30] 0.000864157
9 *646:io_wbs_adr_i[27] *646:io_wbs_dat_i[30] 0
10 *646:io_wbs_dat_i[29] *646:io_wbs_dat_i[30] 0.00397494
*RES
1 wbs_dat_i[30] *646:io_wbs_dat_i[30] 40.9771 
*END

*D_NET *600 0.0127225
*CONN
*P wbs_dat_i[31] I
*I *646:io_wbs_dat_i[31] I *D CaravelTopLevel
*CAP
1 wbs_dat_i[31] 0.000541445
2 *646:io_wbs_dat_i[31] 0.000170846
3 *600:11 0.00120035
4 *600:9 0.00157094
5 *600:11 *631:11 0.00220623
6 *600:11 *632:11 0.00466524
7 *646:io_la_data_in[0] *600:11 0.000155832
8 *646:io_la_data_in[1] *600:11 0.000400578
9 *646:io_wbs_adr_i[28] *600:9 0.000455896
10 *646:io_wbs_dat_i[28] *600:9 0
11 *439:9 *646:io_wbs_dat_i[31] 0.000101159
12 *439:9 *600:11 0.00125397
*RES
1 wbs_dat_i[31] *600:9 29.1271 
2 *600:9 *600:11 56.3636 
3 *600:11 *646:io_wbs_dat_i[31] 17.0611 
*END

*D_NET *601 0.018738
*CONN
*P wbs_dat_i[3] I
*I *646:io_wbs_dat_i[3] I *D CaravelTopLevel
*CAP
1 wbs_dat_i[3] 0.00118283
2 *646:io_wbs_dat_i[3] 0.000285888
3 *601:13 0.00181755
4 *601:11 0.00271449
5 *646:io_wbs_dat_i[3] *635:11 0.000101159
6 *601:11 *641:9 0.000588783
7 *601:11 *644:9 0.000457969
8 *601:13 *603:9 0.00444735
9 *601:13 *630:11 0.000877014
10 *601:13 *641:9 0.00371228
11 *646:io_wbs_adr_i[2] *601:11 0.000140203
12 *646:io_wbs_adr_i[2] *601:13 0.000560841
13 *646:io_wbs_adr_i[3] *646:io_wbs_dat_i[3] 0
14 *646:io_wbs_adr_i[3] *601:13 0.000240343
15 *646:io_wbs_cyc_i *601:11 3.41998e-06
16 *572:11 *601:13 0.00160789
*RES
1 wbs_dat_i[3] *601:11 45.0046 
2 *601:11 *601:13 74.2296 
3 *601:13 *646:io_wbs_dat_i[3] 17.7654 
*END

*D_NET *602 0.0157448
*CONN
*P wbs_dat_i[4] I
*I *646:io_wbs_dat_i[4] I *D CaravelTopLevel
*CAP
1 wbs_dat_i[4] 0.00382843
2 *646:io_wbs_dat_i[4] 0.000187087
3 *602:13 0.00401552
4 *602:13 *607:11 0
5 *602:13 *619:13 0.000620873
6 *646:io_wbs_adr_i[9] *602:13 0
7 *554:13 *602:13 0.00128716
8 *569:17 *602:13 0.000217771
9 *571:13 *602:13 0.00558794
*RES
1 wbs_dat_i[4] *602:13 49.3871 
2 *602:13 *646:io_wbs_dat_i[4] 1.74 
*END

*D_NET *603 0.0180298
*CONN
*P wbs_dat_i[5] I
*I *646:io_wbs_dat_i[5] I *D CaravelTopLevel
*CAP
1 wbs_dat_i[5] 0.000596253
2 *646:io_wbs_dat_i[5] 0.000610863
3 *603:17 0.001782
4 *603:15 0.0015598
5 *603:9 0.00201541
6 *603:7 0.00222301
7 *603:17 *639:11 0.000574102
8 *646:io_wbs_adr_i[2] *603:9 0.000741103
9 *646:io_wbs_adr_i[3] *603:9 0.000624532
10 *544:7 *646:io_wbs_dat_i[5] 0
11 *554:13 *603:7 0
12 *572:11 *603:9 0.000242321
13 *572:17 *603:17 0.00261301
14 *573:15 *603:15 0
15 *577:7 *646:io_wbs_dat_i[5] 0
16 *601:13 *603:9 0.00444735
*RES
1 wbs_dat_i[5] *603:7 27.9257 
2 *603:7 *603:9 52.5521 
3 *603:9 *603:15 38.5964 
4 *603:15 *603:17 35.8771 
5 *603:17 *646:io_wbs_dat_i[5] 26.0925 
*END

*D_NET *604 0.0195139
*CONN
*P wbs_dat_i[6] I
*I *646:io_wbs_dat_i[6] I *D CaravelTopLevel
*CAP
1 wbs_dat_i[6] 0.00311721
2 *646:io_wbs_dat_i[6] 0.00311721
3 *646:io_wbs_dat_i[6] wbs_dat_o[9] 0.00021153
4 *646:io_wbs_adr_i[11] *646:io_wbs_dat_i[6] 0.000364102
5 *569:17 *646:io_wbs_dat_i[6] 0.00469218
6 *571:13 *646:io_wbs_dat_i[6] 0.00801169
*RES
1 wbs_dat_i[6] *646:io_wbs_dat_i[6] 48.461 
*END

*D_NET *605 0.018092
*CONN
*P wbs_dat_i[7] I
*I *646:io_wbs_dat_i[7] I *D CaravelTopLevel
*CAP
1 wbs_dat_i[7] 0.000682967
2 *646:io_wbs_dat_i[7] 0.000172936
3 *605:9 0.00199788
4 *605:7 0.00250791
5 *646:io_wbs_dat_i[7] *609:11 0.000101159
6 *605:9 *607:13 0.000138196
7 *605:9 *609:11 0.00226647
8 *605:9 *635:11 0.0052774
9 *646:io_wbs_adr_i[11] *605:9 0.000190845
10 *646:io_wbs_adr_i[3] *605:9 0.000104089
11 *646:io_wbs_adr_i[9] *605:9 0.00066104
12 *544:9 *605:9 0.00186256
13 *572:11 *605:9 0.0021286
*RES
1 wbs_dat_i[7] *605:7 28.9821 
2 *605:7 *605:9 85.4257 
3 *605:9 *646:io_wbs_dat_i[7] 17.0611 
*END

*D_NET *606 0.0178751
*CONN
*P wbs_dat_i[8] I
*I *646:io_wbs_dat_i[8] I *D CaravelTopLevel
*CAP
1 wbs_dat_i[8] 0.000851903
2 *646:io_wbs_dat_i[8] 0.000134747
3 *606:13 0.00144258
4 *606:11 0.00215973
5 *606:13 *607:11 0.000196819
6 *606:13 *607:13 0.00267452
7 *606:13 *643:13 0.000323913
8 *646:io_wbs_adr_i[9] *606:13 0.00082245
9 *570:9 *606:13 0.00241529
10 *572:15 *606:11 0
11 *573:15 *606:13 6.74232e-05
12 *573:17 *606:13 0.00678573
*RES
1 wbs_dat_i[8] *606:11 32.4621 
2 *606:11 *606:13 83.0436 
3 *606:13 *646:io_wbs_dat_i[8] 17.0611 
*END

*D_NET *607 0.0162332
*CONN
*P wbs_dat_i[9] I
*I *646:io_wbs_dat_i[9] I *D CaravelTopLevel
*CAP
1 wbs_dat_i[9] 0.000953428
2 *646:io_wbs_dat_i[9] 0.000157622
3 *607:13 0.00151331
4 *607:11 0.00230911
5 *607:11 *634:11 0.000277963
6 *607:11 *635:11 0.00137276
7 *607:13 *609:11 0.0009854
8 *607:13 *610:11 0.00371189
9 *607:13 *612:11 0.000176542
10 *607:13 *635:11 0.000283269
11 *646:io_wbs_adr_i[11] *607:13 0.00016958
12 *646:io_wbs_adr_i[9] *607:11 0.000209912
13 *646:io_wbs_adr_i[9] *607:13 0.00080274
14 *570:9 *607:11 0.000300142
15 *602:13 *607:11 0
16 *605:9 *607:13 0.000138196
17 *606:13 *607:11 0.000196819
18 *606:13 *607:13 0.00267452
*RES
1 wbs_dat_i[9] *607:11 44.8596 
2 *607:11 *607:13 68.5125 
3 *607:13 *646:io_wbs_dat_i[9] 17.0611 
*END

*D_NET *608 0.0238739
*CONN
*P wbs_dat_o[0] O
*I *646:io_wbs_dat_o[0] O *D CaravelTopLevel
*CAP
1 wbs_dat_o[0] 0.00361822
2 *646:io_wbs_dat_o[0] 0.00361822
3 wbs_dat_o[0] *640:9 0.00145225
4 wbs_dat_o[0] *645:9 0.0013186
5 *646:io_wb_clk_i wbs_dat_o[0] 0.00486769
6 *646:io_wbs_adr_i[2] wbs_dat_o[0] 0.000258185
7 *646:io_wbs_adr_i[3] wbs_dat_o[0] 0.00163555
8 *646:io_wbs_dat_i[2] wbs_dat_o[0] 0.00511399
9 *542:8 wbs_dat_o[0] 0.00199124
*RES
1 *646:io_wbs_dat_o[0] wbs_dat_o[0] 48.3924 
*END

*D_NET *609 0.0198027
*CONN
*P wbs_dat_o[10] O
*I *646:io_wbs_dat_o[10] O *D CaravelTopLevel
*CAP
1 wbs_dat_o[10] 0.000511731
2 *646:io_wbs_dat_o[10] 0.000261447
3 *609:11 0.00171323
4 *609:9 0.00146295
5 wbs_dat_o[10] *638:17 0.00039508
6 *609:11 *610:11 0.00584305
7 *609:11 *611:11 0.0041729
8 *609:11 *639:9 0.000101159
9 *646:io_wbs_adr_i[10] *609:11 0.000101159
10 *646:io_wbs_adr_i[11] *609:11 0.000389281
11 *646:io_wbs_adr_i[9] *609:11 0.000750989
12 *646:io_wbs_dat_i[7] *609:11 0.000101159
13 *544:9 *609:11 9.8592e-06
14 *546:9 *609:11 0.00061801
15 *571:13 wbs_dat_o[10] 0.000118833
16 *605:9 *609:11 0.00226647
17 *607:13 *609:11 0.0009854
*RES
1 *646:io_wbs_dat_o[10] *609:9 17.0611 
2 *609:9 *609:11 81.6143 
3 *609:11 wbs_dat_o[10] 29.3343 
*END

*D_NET *610 0.0188258
*CONN
*P wbs_dat_o[11] O
*I *646:io_wbs_dat_o[11] O *D CaravelTopLevel
*CAP
1 wbs_dat_o[11] 0.000629339
2 *646:io_wbs_dat_o[11] 0.000195933
3 *610:11 0.00175967
4 *610:9 0.00132627
5 *610:11 *611:11 0.000881555
6 *610:11 *612:11 0.000300352
7 *610:11 *613:11 0.00237263
8 *646:io_wbs_adr_i[11] *610:11 0.000130952
9 *646:io_wbs_adr_i[7] wbs_dat_o[11] 0.000736136
10 *646:io_wbs_adr_i[9] *610:11 0.000644825
11 *581:9 *610:11 0.000293178
12 *607:13 *610:11 0.00371189
13 *609:11 *610:11 0.00584305
*RES
1 *646:io_wbs_dat_o[11] *610:9 17.0611 
2 *610:9 *610:11 79.7086 
3 *610:11 wbs_dat_o[11] 30.805 
*END

*D_NET *611 0.018108
*CONN
*P wbs_dat_o[12] O
*I *646:io_wbs_dat_o[12] O *D CaravelTopLevel
*CAP
1 wbs_dat_o[12] 0.0006826
2 *646:io_wbs_dat_o[12] 0.000193492
3 *611:11 0.00195215
4 *611:9 0.00146304
5 *611:11 wbs_dat_o[15] 0.000112764
6 *611:11 wbs_dat_o[16] 0.000502654
7 *611:11 *613:11 0.000187383
8 *646:io_wbs_adr_i[11] *611:11 0.00060156
9 *646:io_wbs_dat_i[12] *611:11 0.000138492
10 *546:9 *611:11 0.00634091
11 *582:9 *611:11 0.00028617
12 *583:9 *611:11 0.000592303
13 *609:11 *611:11 0.0041729
14 *610:11 *611:11 0.000881555
*RES
1 *646:io_wbs_dat_o[12] *611:9 17.0611 
2 *611:9 *611:11 79.2321 
3 *611:11 wbs_dat_o[12] 28.9821 
*END

*D_NET *612 0.016905
*CONN
*P wbs_dat_o[13] O
*I *646:io_wbs_dat_o[13] O *D CaravelTopLevel
*CAP
1 wbs_dat_o[13] 0.000812324
2 *646:io_wbs_dat_o[13] 0.00023636
3 *612:11 0.00221361
4 *612:9 0.00163765
5 *646:io_wbs_adr_i[16] *612:11 0.00039978
6 *549:9 *612:11 0.00500755
7 *581:9 *612:11 0.00612083
8 *607:13 *612:11 0.000176542
9 *610:11 *612:11 0.000300352
*RES
1 *646:io_wbs_dat_o[13] *612:9 17.0611 
2 *612:9 *612:11 77.8029 
3 *612:11 wbs_dat_o[13] 30.7429 
*END

*D_NET *613 0.0183908
*CONN
*P wbs_dat_o[14] O
*I *646:io_wbs_dat_o[14] O *D CaravelTopLevel
*CAP
1 wbs_dat_o[14] 0.000765535
2 *646:io_wbs_dat_o[14] 0.000167681
3 *613:11 0.00175668
4 *613:9 0.00115883
5 *646:io_wbs_adr_i[10] wbs_dat_o[14] 0
6 *646:io_wbs_adr_i[11] *613:11 0.00011562
7 *646:io_wbs_adr_i[16] *613:11 0.000724994
8 *646:io_wbs_dat_i[10] wbs_dat_o[14] 0
9 *549:9 *613:11 0.000191095
10 *581:9 *613:11 0.00665526
11 *583:9 *613:11 0.00429507
12 *610:11 *613:11 0.00237263
13 *611:11 *613:11 0.000187383
*RES
1 *646:io_wbs_dat_o[14] *613:9 17.0611 
2 *613:9 *613:11 76.85 
3 *613:11 wbs_dat_o[14] 30.0386 
*END

*D_NET *614 0.0192166
*CONN
*P wbs_dat_o[15] O
*I *646:io_wbs_dat_o[15] O *D CaravelTopLevel
*CAP
1 wbs_dat_o[15] 0.00455041
2 *646:io_wbs_dat_o[15] 0.00455041
3 wbs_dat_o[15] wbs_dat_o[16] 0.000220332
4 wbs_dat_o[15] *615:11 0.000329636
5 *646:io_wbs_adr_i[14] wbs_dat_o[15] 0
6 *646:io_wbs_adr_i[16] wbs_dat_o[15] 0.00670447
7 *646:io_wbs_dat_i[11] wbs_dat_o[15] 0.000362832
8 *546:9 wbs_dat_o[15] 0.000120171
9 *551:9 wbs_dat_o[15] 0.00111035
10 *582:9 wbs_dat_o[15] 0.0011552
11 *611:11 wbs_dat_o[15] 0.000112764
*RES
1 *646:io_wbs_dat_o[15] wbs_dat_o[15] 44.1542 
*END

*D_NET *615 0.0154308
*CONN
*P wbs_dat_o[16] O
*I *646:io_wbs_dat_o[16] O *D CaravelTopLevel
*CAP
1 wbs_dat_o[16] 0.000770722
2 *646:io_wbs_dat_o[16] 0.000139195
3 *615:11 0.00175401
4 *615:9 0.00112249
5 *615:11 *617:11 0.00347452
6 *615:11 *618:11 0.00178837
7 wbs_dat_o[15] wbs_dat_o[16] 0.000220332
8 wbs_dat_o[15] *615:11 0.000329636
9 *646:io_wbs_adr_i[16] *615:11 0.000113443
10 *646:io_wbs_dat_i[12] wbs_dat_o[16] 0.000366672
11 *551:9 *615:11 0.000121595
12 *582:9 wbs_dat_o[16] 0.00145755
13 *582:9 *615:11 0.00183608
14 *583:9 wbs_dat_o[16] 0.000336327
15 *583:9 *615:11 0.00109719
16 *611:11 wbs_dat_o[16] 0.000502654
*RES
1 *646:io_wbs_dat_o[16] *615:9 17.0611 
2 *615:9 *615:11 58.5075 
3 *615:11 wbs_dat_o[16] 44.7561 
*END

*D_NET *616 0.011151
*CONN
*P wbs_dat_o[17] O
*I *646:io_wbs_dat_o[17] O *D CaravelTopLevel
*CAP
1 wbs_dat_o[17] 0.000813201
2 *646:io_wbs_dat_o[17] 0.000143939
3 *616:11 0.00310715
4 *616:9 0.00243789
5 *646:io_wbs_adr_i[16] *616:11 0.000440043
6 *549:9 *616:11 0.00242163
7 *580:17 wbs_dat_o[17] 0.000223827
8 *583:9 *616:11 2.61402e-05
9 *586:9 *616:11 0.00123459
10 *589:9 *616:11 0.000302545
*RES
1 *646:io_wbs_dat_o[17] *616:9 17.0611 
2 *616:9 *616:11 71.6093 
3 *616:11 wbs_dat_o[17] 33.1664 
*END

*D_NET *617 0.0156409
*CONN
*P wbs_dat_o[18] O
*I *646:io_wbs_dat_o[18] O *D CaravelTopLevel
*CAP
1 wbs_dat_o[18] 0.000689026
2 *646:io_wbs_dat_o[18] 0.000202704
3 *617:11 0.00184261
4 *617:9 0.00135629
5 *617:11 *618:11 0.000899787
6 *617:11 *621:17 0.00156315
7 *646:io_wbs_adr_i[16] *617:11 0.000564145
8 *646:io_wbs_dat_i[15] *617:11 0.000101159
9 *646:io_wbs_dat_i[18] *617:11 0.000101159
10 *557:13 *617:11 0.000857644
11 *583:9 *617:11 0.00295451
12 *586:9 *617:11 0.00103418
13 *615:11 *617:11 0.00347452
*RES
1 *646:io_wbs_dat_o[18] *617:9 17.0611 
2 *617:9 *617:11 71.6093 
3 *617:11 wbs_dat_o[18] 29.3343 
*END

*D_NET *618 0.0157295
*CONN
*P wbs_dat_o[19] O
*I *646:io_wbs_dat_o[19] O *D CaravelTopLevel
*CAP
1 wbs_dat_o[19] 0.000639106
2 *646:io_wbs_dat_o[19] 0.000215028
3 *618:11 0.00172319
4 *618:9 0.00129911
5 *618:9 *621:13 0.000101159
6 *618:11 wbs_dat_o[22] 0.00012012
7 *618:11 *621:13 0.000353415
8 *618:11 *621:17 0.00224814
9 *551:9 *618:11 0.000645592
10 *588:9 *618:11 0.00541977
11 *591:7 *618:9 0
12 *591:9 *618:11 0.000276734
13 *615:11 *618:11 0.00178837
14 *617:11 *618:11 0.000899787
*RES
1 *646:io_wbs_dat_o[19] *618:9 17.4132 
2 *618:9 *618:11 70.6564 
3 *618:11 wbs_dat_o[19] 28.63 
*END

*D_NET *619 0.0195069
*CONN
*P wbs_dat_o[1] O
*I *646:io_wbs_dat_o[1] O *D CaravelTopLevel
*CAP
1 wbs_dat_o[1] 4.49146e-05
2 *646:io_wbs_dat_o[1] 0.00373878
3 *619:13 0.00378369
4 *619:13 wbs_dat_o[5] 0
5 *619:13 *635:11 0.000101159
6 *554:13 *619:13 0.00810634
7 *569:17 *619:13 0.0031111
8 *602:13 *619:13 0.000620873
*RES
1 *646:io_wbs_dat_o[1] *619:13 49.0283 
2 *619:13 wbs_dat_o[1] 1.02536 
*END

*D_NET *620 0.016387
*CONN
*P wbs_dat_o[20] O
*I *646:io_wbs_dat_o[20] O *D CaravelTopLevel
*CAP
1 wbs_dat_o[20] 0.00227435
2 *646:io_wbs_dat_o[20] 0.00227435
3 wbs_dat_o[20] wbs_dat_o[24] 0
4 wbs_dat_o[20] *621:13 0.000101159
5 *646:io_wbs_adr_i[19] wbs_dat_o[20] 0.00396078
6 *646:io_wbs_adr_i[20] wbs_dat_o[20] 0.00561662
7 *646:io_wbs_adr_i[21] wbs_dat_o[20] 0.00149377
8 *646:io_wbs_adr_i[24] wbs_dat_o[20] 0.000154505
9 *646:io_wbs_dat_i[20] wbs_dat_o[20] 0
10 *646:io_wbs_dat_i[22] wbs_dat_o[20] 0.000200135
11 *646:io_wbs_dat_i[24] wbs_dat_o[20] 0.000311369
*RES
1 *646:io_wbs_dat_o[20] wbs_dat_o[20] 44.5499 
*END

*D_NET *621 0.0171808
*CONN
*P wbs_dat_o[21] O
*I *646:io_wbs_dat_o[21] O *D CaravelTopLevel
*CAP
1 wbs_dat_o[21] 0.00069634
2 *646:io_wbs_dat_o[21] 0.000174731
3 *621:17 0.00106664
4 *621:13 0.000982662
5 *621:9 0.000787095
6 *621:13 wbs_dat_o[22] 0.000922982
7 wbs_dat_o[20] *621:13 0.000101159
8 *646:io_wbs_adr_i[20] *621:13 0.000101159
9 *646:io_wbs_adr_i[21] *621:13 0.000101159
10 *557:13 *621:13 0.00414046
11 *557:13 *621:17 0.00037064
12 *591:9 *621:13 0.00346988
13 *617:11 *621:17 0.00156315
14 *618:9 *621:13 0.000101159
15 *618:11 *621:13 0.000353415
16 *618:11 *621:17 0.00224814
*RES
1 *646:io_wbs_dat_o[21] *621:9 17.0611 
2 *621:9 *621:13 44.7118 
3 *621:13 *621:17 39.2046 
4 *621:17 wbs_dat_o[21] 13.9821 
*END

*D_NET *622 0.0160632
*CONN
*P wbs_dat_o[22] O
*I *646:io_wbs_dat_o[22] O *D CaravelTopLevel
*CAP
1 wbs_dat_o[22] 0.00560524
2 *646:io_wbs_dat_o[22] 0.00560524
3 wbs_dat_o[22] *623:11 0.000662139
4 wbs_dat_o[22] *624:11 0.000230367
5 wbs_dat_o[22] *625:11 0.000209294
6 *646:io_wbs_adr_i[19] wbs_dat_o[22] 0
7 *557:13 wbs_dat_o[22] 0.000996169
8 *586:9 wbs_dat_o[22] 0.000113998
9 *588:9 wbs_dat_o[22] 0.000474837
10 *589:9 wbs_dat_o[22] 0.000525401
11 *591:9 wbs_dat_o[22] 0.000597416
12 *618:11 wbs_dat_o[22] 0.00012012
13 *621:13 wbs_dat_o[22] 0.000922982
*RES
1 *646:io_wbs_dat_o[22] wbs_dat_o[22] 44.1428 
*END

*D_NET *623 0.0150981
*CONN
*P wbs_dat_o[23] O
*I *646:io_wbs_dat_o[23] O *D CaravelTopLevel
*CAP
1 wbs_dat_o[23] 0.000664698
2 *646:io_wbs_dat_o[23] 0.000156765
3 *623:11 0.00176026
4 *623:9 0.00125232
5 *623:11 *624:11 0.000939413
6 *623:11 *625:11 0.00277016
7 *623:11 *626:11 0.000322072
8 wbs_dat_o[22] *623:11 0.000662139
9 *646:io_wbs_adr_i[20] wbs_dat_o[23] 0
10 *588:9 *623:11 0.00096237
11 *591:9 *623:11 0.00560791
*RES
1 *646:io_wbs_dat_o[23] *623:9 16.9368 
2 *623:9 *623:11 66.3686 
3 *623:11 wbs_dat_o[23] 28.63 
*END

*D_NET *624 0.0114093
*CONN
*P wbs_dat_o[24] O
*I *646:io_wbs_dat_o[24] O *D CaravelTopLevel
*CAP
1 wbs_dat_o[24] 0.000518409
2 *646:io_wbs_dat_o[24] 0.000179998
3 *624:11 0.00250521
4 *624:9 0.00216679
5 *624:9 *626:11 0.000101159
6 *624:11 wbs_dat_o[27] 0.00022031
7 *624:11 *625:11 0.00431819
8 wbs_dat_o[20] wbs_dat_o[24] 0
9 wbs_dat_o[22] *624:11 0.000230367
10 *646:io_wbs_adr_i[21] wbs_dat_o[24] 0.00022949
11 *623:11 *624:11 0.000939413
*RES
1 *646:io_wbs_dat_o[24] *624:9 18.1175 
2 *624:9 *624:11 64.4629 
3 *624:11 wbs_dat_o[24] 27.9257 
*END

*D_NET *625 0.013026
*CONN
*P wbs_dat_o[25] O
*I *646:io_wbs_dat_o[25] O *D CaravelTopLevel
*CAP
1 wbs_dat_o[25] 0.000648212
2 *646:io_wbs_dat_o[25] 0.0001702
3 *625:11 0.00197959
4 *625:9 0.00150158
5 *625:9 *626:11 0.000101159
6 *625:11 wbs_dat_o[27] 0.000208177
7 *625:11 *626:11 0.00111948
8 wbs_dat_o[22] *625:11 0.000209294
9 *623:11 *625:11 0.00277016
10 *624:11 *625:11 0.00431819
*RES
1 *646:io_wbs_dat_o[25] *625:9 17.7654 
2 *625:9 *625:11 63.51 
3 *625:11 wbs_dat_o[25] 28.2779 
*END

*D_NET *626 0.0108252
*CONN
*P wbs_dat_o[26] O
*I *646:io_wbs_dat_o[26] O *D CaravelTopLevel
*CAP
1 wbs_dat_o[26] 0.000629047
2 *646:io_wbs_dat_o[26] 9.7916e-05
3 *626:11 0.00297139
4 *626:9 0.00244026
5 *626:11 wbs_dat_o[27] 0.000382886
6 *646:io_wbs_adr_i[23] wbs_dat_o[26] 0.00082862
7 *646:io_wbs_adr_i[23] *626:11 0.000101159
8 *646:io_wbs_adr_i[24] *626:11 0.000101159
9 *646:io_wbs_adr_i[25] *626:11 0.000101159
10 *646:io_wbs_adr_i[26] *626:11 0.000202319
11 *646:io_wbs_dat_i[23] *626:11 0.000101159
12 *646:io_wbs_dat_i[24] *626:11 0.000101159
13 *646:io_wbs_dat_i[29] *626:11 0.000537341
14 *591:9 *626:11 0.000585713
15 *623:11 *626:11 0.000322072
16 *624:9 *626:11 0.000101159
17 *625:9 *626:11 0.000101159
18 *625:11 *626:11 0.00111948
*RES
1 *646:io_wbs_dat_o[26] *626:9 17.0611 
2 *626:9 *626:11 63.51 
3 *626:11 wbs_dat_o[26] 30.9086 
*END

*D_NET *627 0.0118127
*CONN
*P wbs_dat_o[27] O
*I *646:io_wbs_dat_o[27] O *D CaravelTopLevel
*CAP
1 wbs_dat_o[27] 0.00378911
2 *646:io_wbs_dat_o[27] 0.00378911
3 wbs_dat_o[27] wbs_dat_o[28] 0.000102979
4 wbs_dat_o[27] wbs_dat_o[29] 0.000870385
5 *646:io_wbs_adr_i[24] wbs_dat_o[27] 0
6 *646:io_wbs_adr_i[29] wbs_dat_o[27] 0.000325764
7 *646:io_wbs_dat_i[24] wbs_dat_o[27] 0
8 *646:io_wbs_dat_i[27] wbs_dat_o[27] 0
9 *646:io_wbs_dat_i[29] wbs_dat_o[27] 0.000831497
10 *646:io_wbs_dat_i[30] wbs_dat_o[27] 0.00129248
11 *624:11 wbs_dat_o[27] 0.00022031
12 *625:11 wbs_dat_o[27] 0.000208177
13 *626:11 wbs_dat_o[27] 0.000382886
*RES
1 *646:io_wbs_dat_o[27] wbs_dat_o[27] 41.4923 
*END

*D_NET *628 0.0141024
*CONN
*P wbs_dat_o[28] O
*I *646:io_wbs_dat_o[28] O *D CaravelTopLevel
*CAP
1 wbs_dat_o[28] 0.00256271
2 *646:io_wbs_dat_o[28] 0.00256271
3 wbs_dat_o[28] wbs_dat_o[31] 0
4 wbs_dat_o[27] wbs_dat_o[28] 0.000102979
5 *646:io_la_data_in[0] wbs_dat_o[28] 8.6101e-05
6 *646:io_wbs_adr_i[25] wbs_dat_o[28] 0
7 *646:io_wbs_adr_i[28] wbs_dat_o[28] 0
8 *646:io_wbs_adr_i[29] wbs_dat_o[28] 0.00521644
9 *646:io_wbs_dat_i[25] wbs_dat_o[28] 0
10 *646:io_wbs_dat_i[27] wbs_dat_o[28] 0.00357146
*RES
1 *646:io_wbs_dat_o[28] wbs_dat_o[28] 42.442 
*END

*D_NET *629 0.0119294
*CONN
*P wbs_dat_o[29] O
*I *646:io_wbs_dat_o[29] O *D CaravelTopLevel
*CAP
1 wbs_dat_o[29] 0.00250836
2 *646:io_wbs_dat_o[29] 0.00250836
3 la_data_out[0] wbs_dat_o[29] 0.000319807
4 wbs_dat_o[27] wbs_dat_o[29] 0.000870385
5 *646:io_la_data_in[0] wbs_dat_o[29] 0.000527467
6 *646:io_la_data_in[1] wbs_dat_o[29] 0
7 *646:io_wbs_adr_i[26] wbs_dat_o[29] 0
8 *646:io_wbs_adr_i[29] wbs_dat_o[29] 0.00452937
9 *646:io_wbs_dat_i[26] wbs_dat_o[29] 0.00023171
10 *646:io_wbs_dat_i[30] wbs_dat_o[29] 0.000433895
11 *400:7 wbs_dat_o[29] 0
*RES
1 *646:io_wbs_dat_o[29] wbs_dat_o[29] 42.5749 
*END

*D_NET *630 0.020198
*CONN
*P wbs_dat_o[2] O
*I *646:io_wbs_dat_o[2] O *D CaravelTopLevel
*CAP
1 wbs_dat_o[2] 0.000691621
2 *646:io_wbs_dat_o[2] 0.000177753
3 *630:11 0.00218892
4 *630:9 0.00167505
5 *630:11 *633:11 0.00195611
6 *630:11 *635:11 0.00235787
7 *630:11 *641:9 0.00696117
8 *630:11 *645:9 0.00271023
9 *646:io_wbs_adr_i[3] *630:11 0.000546489
10 *572:11 *630:11 5.58003e-05
11 *601:13 *630:11 0.000877014
*RES
1 *646:io_wbs_dat_o[2] *630:9 16.5846 
2 *630:9 *630:11 92.5721 
3 *630:11 wbs_dat_o[2] 28.9821 
*END

*D_NET *631 0.00986327
*CONN
*P wbs_dat_o[30] O
*I *646:io_wbs_dat_o[30] O *D CaravelTopLevel
*CAP
1 wbs_dat_o[30] 0.000782165
2 *646:io_wbs_dat_o[30] 0.000156617
3 *631:11 0.0028505
4 *631:9 0.00222495
5 *646:io_la_data_in[1] *631:11 0.000232714
6 *646:io_wbs_adr_i[27] wbs_dat_o[30] 0
7 *646:io_wbs_dat_i[27] wbs_dat_o[30] 0.000198144
8 *646:io_wbs_dat_i[29] *631:11 0.000908111
9 *646:io_wbs_dat_i[30] *631:11 0.00011416
10 *439:9 *631:11 0.000189689
11 *600:11 *631:11 0.00220623
*RES
1 *646:io_wbs_dat_o[30] *631:9 17.0611 
2 *631:9 *631:11 58.2693 
3 *631:11 wbs_dat_o[30] 31.4886 
*END

*D_NET *632 0.0133732
*CONN
*P wbs_dat_o[31] O
*I *646:io_wbs_dat_o[31] O *D CaravelTopLevel
*CAP
1 wbs_dat_o[31] 0.000518836
2 *646:io_wbs_dat_o[31] 0.000143788
3 *632:11 0.00159509
4 *632:9 0.00122004
5 wbs_dat_o[28] wbs_dat_o[31] 0
6 *646:io_la_data_in[1] *632:11 0.000231205
7 *646:io_wbs_dat_i[28] wbs_dat_o[31] 0.000348279
8 *646:io_wbs_dat_i[30] *632:11 0.000734571
9 *400:9 *632:11 0.00351788
10 *439:9 *632:9 0.000101159
11 *439:9 *632:11 0.00029706
12 *600:11 *632:11 0.00466524
*RES
1 *646:io_wbs_dat_o[31] *632:9 17.4132 
2 *632:9 *632:11 55.8871 
3 *632:11 wbs_dat_o[31] 28.775 
*END

*D_NET *633 0.0193026
*CONN
*P wbs_dat_o[3] O
*I *646:io_wbs_dat_o[3] O *D CaravelTopLevel
*CAP
1 wbs_dat_o[3] 0.000791609
2 *646:io_wbs_dat_o[3] 0.000209325
3 *633:11 0.00218814
4 *633:9 0.00160586
5 wbs_dat_o[3] *646:io_wbs_stb_i 0
6 wbs_dat_o[3] *640:15 0
7 *633:11 *634:11 0.00615741
8 *633:11 *635:11 0.00446551
9 *633:11 *640:9 0.000231039
10 *633:11 *645:9 0.000316594
11 *646:io_wbs_adr_i[3] *633:11 0.00068434
12 *587:9 *633:11 0.000696685
13 *630:11 *633:11 0.00195611
*RES
1 *646:io_wbs_dat_o[3] *633:9 17.0611 
2 *633:9 *633:11 89.2371 
3 *633:11 wbs_dat_o[3] 30.9293 
*END

*D_NET *634 0.0207689
*CONN
*P wbs_dat_o[4] O
*I *646:io_wbs_dat_o[4] O *D CaravelTopLevel
*CAP
1 wbs_dat_o[4] 0.00075264
2 *646:io_wbs_dat_o[4] 0.000229715
3 *634:11 0.00196135
4 *634:9 0.00143843
5 wbs_dat_o[4] *646:io_wbs_sel_i[0] 0
6 *634:11 *635:11 0.00102881
7 *646:io_wbs_adr_i[3] *634:11 0.000201444
8 *646:io_wbs_adr_i[9] *634:11 0.000144186
9 *646:io_wbs_dat_i[2] *634:11 0.000546545
10 *570:9 *634:11 0.00770998
11 *587:9 *634:11 0.000320438
12 *607:11 *634:11 0.000277963
13 *633:11 *634:11 0.00615741
*RES
1 *646:io_wbs_dat_o[4] *634:9 17.0611 
2 *634:9 *634:11 88.7607 
3 *634:11 wbs_dat_o[4] 30.0386 
*END

*D_NET *635 0.0207825
*CONN
*P wbs_dat_o[5] O
*I *646:io_wbs_dat_o[5] O *D CaravelTopLevel
*CAP
1 wbs_dat_o[5] 0.000712631
2 *646:io_wbs_dat_o[5] 0.000151144
3 *635:11 0.00199066
4 *635:9 0.00142917
5 *635:11 *646:io_wbs_sel_i[1] 0.000101159
6 *646:io_wbs_adr_i[3] *635:11 0.000582107
7 *646:io_wbs_adr_i[9] *635:11 0.000539083
8 *646:io_wbs_dat_i[3] *635:11 0.000101159
9 *572:11 *635:11 0.000288637
10 *605:9 *635:11 0.0052774
11 *607:11 *635:11 0.00137276
12 *607:13 *635:11 0.000283269
13 *619:13 wbs_dat_o[5] 0
14 *619:13 *635:11 0.000101159
15 *630:11 *635:11 0.00235787
16 *633:11 *635:11 0.00446551
17 *634:11 *635:11 0.00102881
*RES
1 *646:io_wbs_dat_o[5] *635:9 17.0611 
2 *635:9 *635:11 87.8079 
3 *635:11 wbs_dat_o[5] 29.3343 
*END

*D_NET *636 0.0188783
*CONN
*P wbs_dat_o[6] O
*I *646:io_wbs_dat_o[6] O *D CaravelTopLevel
*CAP
1 wbs_dat_o[6] 0.000871169
2 *646:io_wbs_dat_o[6] 0.000209401
3 *636:15 0.00169175
4 *636:13 0.00147795
5 *636:9 0.000866763
6 *636:13 *637:11 0.000636336
7 *636:13 *638:19 0.00344484
8 *636:15 *637:11 0.00175182
9 *636:15 *642:9 0.00112424
10 *636:15 *643:13 0.000710939
11 *646:io_wbs_adr_i[2] wbs_dat_o[6] 0
12 *646:io_wbs_adr_i[9] *636:13 0.000428116
13 *573:15 *636:13 1.07227e-05
14 *573:15 *636:15 0.00103304
15 *573:17 *636:13 0.00460384
16 *573:17 *636:15 1.73995e-05
*RES
1 *646:io_wbs_dat_o[6] *636:9 17.0611 
2 *636:9 *636:13 49.7143 
3 *636:13 *636:15 37.3064 
4 *636:15 wbs_dat_o[6] 31.7993 
*END

*D_NET *637 0.0135037
*CONN
*P wbs_dat_o[7] O
*I *646:io_wbs_dat_o[7] O *D CaravelTopLevel
*CAP
1 wbs_dat_o[7] 0.000870014
2 *646:io_wbs_dat_o[7] 0.000121879
3 *637:11 0.00340833
4 *637:9 0.0026602
5 *637:11 *638:19 0.00344484
6 *646:io_wbs_adr_i[3] wbs_dat_o[7] 3.09703e-05
7 *573:17 *637:11 0.000579289
8 *636:13 *637:11 0.000636336
9 *636:15 *637:11 0.00175182
*RES
1 *646:io_wbs_dat_o[7] *637:9 17.0611 
2 *637:9 *637:11 84.9493 
3 *637:11 wbs_dat_o[7] 32.1514 
*END

*D_NET *638 0.0213246
*CONN
*P wbs_dat_o[8] O
*I *646:io_wbs_dat_o[8] O *D CaravelTopLevel
*CAP
1 wbs_dat_o[8] 0.00087435
2 *646:io_wbs_dat_o[8] 0.000671749
3 *638:19 0.00132044
4 *638:17 0.000802004
5 *638:11 0.00148081
6 *638:9 0.00179664
7 *638:11 *639:11 0.00427345
8 wbs_dat_o[10] *638:17 0.00039508
9 *646:io_wbs_adr_i[9] *638:19 0.000313736
10 *569:17 wbs_dat_o[8] 0
11 *571:13 *638:17 0.000757064
12 *572:15 wbs_dat_o[8] 8.87698e-05
13 *572:17 *638:11 0.00166082
14 *636:13 *638:19 0.00344484
15 *637:11 *638:19 0.00344484
*RES
1 *646:io_wbs_dat_o[8] *638:9 26.0925 
2 *638:9 *638:11 46.835 
3 *638:11 *638:17 42.47 
4 *638:17 *638:19 36.83 
5 *638:19 wbs_dat_o[8] 33.0421 
*END

*D_NET *639 0.0133529
*CONN
*P wbs_dat_o[9] O
*I *646:io_wbs_dat_o[9] O *D CaravelTopLevel
*CAP
1 wbs_dat_o[9] 0.000305233
2 *646:io_wbs_dat_o[9] 0.000686918
3 *639:11 0.00314556
4 *639:9 0.00352725
5 *646:io_wbs_adr_i[14] *639:9 0
6 *646:io_wbs_dat_i[6] wbs_dat_o[9] 0.00021153
7 *544:7 wbs_dat_o[9] 0
8 *572:17 *639:11 0.000527697
9 *581:7 *639:9 0
10 *603:17 *639:11 0.000574102
11 *609:11 *639:9 0.000101159
12 *638:11 *639:11 0.00427345
*RES
1 *646:io_wbs_dat_o[9] *639:9 26.9211 
2 *639:9 *639:11 80.185 
3 *639:11 wbs_dat_o[9] 21.6493 
*END

*D_NET *640 0.0174409
*CONN
*P wbs_sel_i[0] I
*I *646:io_wbs_sel_i[0] I *D CaravelTopLevel
*CAP
1 wbs_sel_i[0] 0.000736006
2 *646:io_wbs_sel_i[0] 0.00180293
3 *640:15 0.00234198
4 *640:9 0.00201769
5 *640:7 0.00221465
6 *640:9 *645:9 0.00357417
7 *640:15 *646:io_wbs_we_i 9.78317e-06
8 *640:15 *643:11 0
9 wbs_dat_o[0] *640:9 0.00145225
10 wbs_dat_o[3] *640:15 0
11 wbs_dat_o[4] *646:io_wbs_sel_i[0] 0
12 *570:7 *646:io_wbs_sel_i[0] 0
13 *587:9 *640:9 0.00306045
14 *633:11 *640:9 0.000231039
*RES
1 wbs_sel_i[0] *640:7 30.0386 
2 *640:7 *640:9 71.1329 
3 *640:9 *640:15 40.005 
4 *640:15 *646:io_wbs_sel_i[0] 49.8311 
*END

*D_NET *641 0.0215369
*CONN
*P wbs_sel_i[1] I
*I *646:io_wbs_sel_i[1] I *D CaravelTopLevel
*CAP
1 wbs_sel_i[1] 0.000650534
2 *646:io_wbs_sel_i[1] 0.000237611
3 *641:9 0.00163766
4 *641:7 0.00205058
5 *641:9 *644:9 0.0038693
6 *641:9 *645:9 0.000938448
7 *646:io_wbs_adr_i[3] *641:9 0.000789398
8 *601:11 *641:9 0.000588783
9 *601:13 *641:9 0.00371228
10 *630:11 *641:9 0.00696117
11 *635:11 *646:io_wbs_sel_i[1] 0.000101159
*RES
1 wbs_sel_i[1] *641:7 28.63 
2 *641:7 *641:9 93.0486 
3 *641:9 *646:io_wbs_sel_i[1] 17.4132 
*END

*D_NET *642 0.0158015
*CONN
*P wbs_sel_i[2] I
*I *646:io_wbs_sel_i[2] I *D CaravelTopLevel
*CAP
1 wbs_sel_i[2] 0.000782171
2 *646:io_wbs_sel_i[2] 0.000114808
3 *642:9 0.00258679
4 *642:7 0.00325415
5 *642:9 *643:13 0.00617018
6 *646:io_wb_rst_i *642:7 0.000427386
7 *587:9 *642:9 0.00134175
8 *636:15 *642:9 0.00112424
*RES
1 wbs_sel_i[2] *642:7 31.4471 
2 *642:7 *642:9 91.6193 
3 *642:9 *646:io_wbs_sel_i[2] 17.0611 
*END

*D_NET *643 0.0195809
*CONN
*P wbs_sel_i[3] I
*I *646:io_wbs_sel_i[3] I *D CaravelTopLevel
*CAP
1 wbs_sel_i[3] 0.000909818
2 *646:io_wbs_sel_i[3] 0.000159493
3 *643:13 0.00145281
4 *643:11 0.00220314
5 *646:io_wbs_adr_i[0] *643:11 0
6 *646:io_wbs_dat_i[2] *643:13 0.000971651
7 *570:9 *643:13 0.00282281
8 *573:15 *643:13 0.000900305
9 *587:9 *643:13 0.00295583
10 *606:13 *643:13 0.000323913
11 *636:15 *643:13 0.000710939
12 *640:15 *643:11 0
13 *642:9 *643:13 0.00617018
*RES
1 wbs_sel_i[3] *643:11 32.8143 
2 *643:11 *643:13 89.2371 
3 *643:13 *646:io_wbs_sel_i[3] 16.5846 
*END

*D_NET *644 0.0205001
*CONN
*P wbs_stb_i I
*I *646:io_wbs_stb_i I *D CaravelTopLevel
*CAP
1 wbs_stb_i 0.000608469
2 *646:io_wbs_stb_i 0.000252834
3 *644:9 0.00191781
4 *644:7 0.00227344
5 *644:9 *645:9 0.0016431
6 wbs_dat_o[3] *646:io_wbs_stb_i 0
7 *646:io_wb_clk_i *644:9 0.000666347
8 *646:io_wbs_adr_i[2] *644:9 0.000319433
9 *575:9 *644:9 0.00849144
10 *601:11 *644:9 0.000457969
11 *641:9 *644:9 0.0038693
*RES
1 wbs_stb_i *644:7 28.2779 
2 *644:7 *644:9 96.86 
3 *644:9 *646:io_wbs_stb_i 17.7654 
*END

*D_NET *645 0.0166664
*CONN
*P wbs_we_i I
*I *646:io_wbs_we_i I *D CaravelTopLevel
*CAP
1 wbs_we_i 0.000673024
2 *646:io_wbs_we_i 0.000137412
3 *645:9 0.00231441
4 *645:7 0.00285003
5 wbs_dat_o[0] *645:9 0.0013186
6 *542:8 *645:9 0.000180621
7 *630:11 *645:9 0.00271023
8 *633:11 *645:9 0.000316594
9 *640:9 *645:9 0.00357417
10 *640:15 *646:io_wbs_we_i 9.78317e-06
11 *641:9 *645:9 0.000938448
12 *644:9 *645:9 0.0016431
*RES
1 wbs_we_i *645:7 29.3343 
2 *645:7 *645:9 96.3836 
3 *645:9 *646:io_wbs_we_i 17.0611 
*END
