*SPEF "ieee 1481-1999"
*DESIGN "user_project_wrapper"
*DATE "11:11:11 Fri 11 11, 1111"
*VENDOR "OpenRCX"
*PROGRAM "Parallel Extraction"
*VERSION "1.0"
*DESIGN_FLOW "NAME_SCOPE LOCAL" "PIN_CAP NONE"
*DIVIDER /
*DELIMITER :
*BUS_DELIMITER []
*T_UNIT 1 NS
*C_UNIT 1 PF
*R_UNIT 1 OHM
*L_UNIT 1 HENRY

*NAME_MAP
*1 analog_io[0]
*2 analog_io[10]
*3 analog_io[11]
*4 analog_io[12]
*5 analog_io[13]
*6 analog_io[14]
*7 analog_io[15]
*8 analog_io[16]
*9 analog_io[17]
*10 analog_io[18]
*11 analog_io[19]
*12 analog_io[1]
*13 analog_io[20]
*14 analog_io[21]
*15 analog_io[22]
*16 analog_io[23]
*17 analog_io[24]
*18 analog_io[25]
*19 analog_io[26]
*20 analog_io[27]
*21 analog_io[28]
*22 analog_io[2]
*23 analog_io[3]
*24 analog_io[4]
*25 analog_io[5]
*26 analog_io[6]
*27 analog_io[7]
*28 analog_io[8]
*29 analog_io[9]
*30 io_in[0]
*31 io_in[10]
*32 io_in[11]
*33 io_in[12]
*34 io_in[13]
*35 io_in[14]
*36 io_in[15]
*37 io_in[16]
*38 io_in[17]
*39 io_in[18]
*40 io_in[19]
*41 io_in[1]
*42 io_in[20]
*43 io_in[21]
*44 io_in[22]
*45 io_in[23]
*46 io_in[24]
*47 io_in[25]
*48 io_in[26]
*49 io_in[27]
*50 io_in[28]
*51 io_in[29]
*52 io_in[2]
*53 io_in[30]
*54 io_in[31]
*55 io_in[32]
*56 io_in[33]
*57 io_in[34]
*58 io_in[35]
*59 io_in[36]
*60 io_in[37]
*61 io_in[3]
*62 io_in[4]
*63 io_in[5]
*64 io_in[6]
*65 io_in[7]
*66 io_in[8]
*67 io_in[9]
*68 io_oeb[0]
*69 io_oeb[10]
*70 io_oeb[11]
*71 io_oeb[12]
*72 io_oeb[13]
*73 io_oeb[14]
*74 io_oeb[15]
*75 io_oeb[16]
*76 io_oeb[17]
*77 io_oeb[18]
*78 io_oeb[19]
*79 io_oeb[1]
*80 io_oeb[20]
*81 io_oeb[21]
*82 io_oeb[22]
*83 io_oeb[23]
*84 io_oeb[24]
*85 io_oeb[25]
*86 io_oeb[26]
*87 io_oeb[27]
*88 io_oeb[28]
*89 io_oeb[29]
*90 io_oeb[2]
*91 io_oeb[30]
*92 io_oeb[31]
*93 io_oeb[32]
*94 io_oeb[33]
*95 io_oeb[34]
*96 io_oeb[35]
*97 io_oeb[36]
*98 io_oeb[37]
*99 io_oeb[3]
*100 io_oeb[4]
*101 io_oeb[5]
*102 io_oeb[6]
*103 io_oeb[7]
*104 io_oeb[8]
*105 io_oeb[9]
*106 io_out[0]
*107 io_out[10]
*108 io_out[11]
*109 io_out[12]
*110 io_out[13]
*111 io_out[14]
*112 io_out[15]
*113 io_out[16]
*114 io_out[17]
*115 io_out[18]
*116 io_out[19]
*117 io_out[1]
*118 io_out[20]
*119 io_out[21]
*120 io_out[22]
*121 io_out[23]
*122 io_out[24]
*123 io_out[25]
*124 io_out[26]
*125 io_out[27]
*126 io_out[28]
*127 io_out[29]
*128 io_out[2]
*129 io_out[30]
*130 io_out[31]
*131 io_out[32]
*132 io_out[33]
*133 io_out[34]
*134 io_out[35]
*135 io_out[36]
*136 io_out[37]
*137 io_out[3]
*138 io_out[4]
*139 io_out[5]
*140 io_out[6]
*141 io_out[7]
*142 io_out[8]
*143 io_out[9]
*144 la_data_in[0]
*145 la_data_in[100]
*146 la_data_in[101]
*147 la_data_in[102]
*148 la_data_in[103]
*149 la_data_in[104]
*150 la_data_in[105]
*151 la_data_in[106]
*152 la_data_in[107]
*153 la_data_in[108]
*154 la_data_in[109]
*155 la_data_in[10]
*156 la_data_in[110]
*157 la_data_in[111]
*158 la_data_in[112]
*159 la_data_in[113]
*160 la_data_in[114]
*161 la_data_in[115]
*162 la_data_in[116]
*163 la_data_in[117]
*164 la_data_in[118]
*165 la_data_in[119]
*166 la_data_in[11]
*167 la_data_in[120]
*168 la_data_in[121]
*169 la_data_in[122]
*170 la_data_in[123]
*171 la_data_in[124]
*172 la_data_in[125]
*173 la_data_in[126]
*174 la_data_in[127]
*175 la_data_in[12]
*176 la_data_in[13]
*177 la_data_in[14]
*178 la_data_in[15]
*179 la_data_in[16]
*180 la_data_in[17]
*181 la_data_in[18]
*182 la_data_in[19]
*183 la_data_in[1]
*184 la_data_in[20]
*185 la_data_in[21]
*186 la_data_in[22]
*187 la_data_in[23]
*188 la_data_in[24]
*189 la_data_in[25]
*190 la_data_in[26]
*191 la_data_in[27]
*192 la_data_in[28]
*193 la_data_in[29]
*194 la_data_in[2]
*195 la_data_in[30]
*196 la_data_in[31]
*197 la_data_in[32]
*198 la_data_in[33]
*199 la_data_in[34]
*200 la_data_in[35]
*201 la_data_in[36]
*202 la_data_in[37]
*203 la_data_in[38]
*204 la_data_in[39]
*205 la_data_in[3]
*206 la_data_in[40]
*207 la_data_in[41]
*208 la_data_in[42]
*209 la_data_in[43]
*210 la_data_in[44]
*211 la_data_in[45]
*212 la_data_in[46]
*213 la_data_in[47]
*214 la_data_in[48]
*215 la_data_in[49]
*216 la_data_in[4]
*217 la_data_in[50]
*218 la_data_in[51]
*219 la_data_in[52]
*220 la_data_in[53]
*221 la_data_in[54]
*222 la_data_in[55]
*223 la_data_in[56]
*224 la_data_in[57]
*225 la_data_in[58]
*226 la_data_in[59]
*227 la_data_in[5]
*228 la_data_in[60]
*229 la_data_in[61]
*230 la_data_in[62]
*231 la_data_in[63]
*232 la_data_in[64]
*233 la_data_in[65]
*234 la_data_in[66]
*235 la_data_in[67]
*236 la_data_in[68]
*237 la_data_in[69]
*238 la_data_in[6]
*239 la_data_in[70]
*240 la_data_in[71]
*241 la_data_in[72]
*242 la_data_in[73]
*243 la_data_in[74]
*244 la_data_in[75]
*245 la_data_in[76]
*246 la_data_in[77]
*247 la_data_in[78]
*248 la_data_in[79]
*249 la_data_in[7]
*250 la_data_in[80]
*251 la_data_in[81]
*252 la_data_in[82]
*253 la_data_in[83]
*254 la_data_in[84]
*255 la_data_in[85]
*256 la_data_in[86]
*257 la_data_in[87]
*258 la_data_in[88]
*259 la_data_in[89]
*260 la_data_in[8]
*261 la_data_in[90]
*262 la_data_in[91]
*263 la_data_in[92]
*264 la_data_in[93]
*265 la_data_in[94]
*266 la_data_in[95]
*267 la_data_in[96]
*268 la_data_in[97]
*269 la_data_in[98]
*270 la_data_in[99]
*271 la_data_in[9]
*272 la_data_out[0]
*273 la_data_out[100]
*274 la_data_out[101]
*275 la_data_out[102]
*276 la_data_out[103]
*277 la_data_out[104]
*278 la_data_out[105]
*279 la_data_out[106]
*280 la_data_out[107]
*281 la_data_out[108]
*282 la_data_out[109]
*283 la_data_out[10]
*284 la_data_out[110]
*285 la_data_out[111]
*286 la_data_out[112]
*287 la_data_out[113]
*288 la_data_out[114]
*289 la_data_out[115]
*290 la_data_out[116]
*291 la_data_out[117]
*292 la_data_out[118]
*293 la_data_out[119]
*294 la_data_out[11]
*295 la_data_out[120]
*296 la_data_out[121]
*297 la_data_out[122]
*298 la_data_out[123]
*299 la_data_out[124]
*300 la_data_out[125]
*301 la_data_out[126]
*302 la_data_out[127]
*303 la_data_out[12]
*304 la_data_out[13]
*305 la_data_out[14]
*306 la_data_out[15]
*307 la_data_out[16]
*308 la_data_out[17]
*309 la_data_out[18]
*310 la_data_out[19]
*311 la_data_out[1]
*312 la_data_out[20]
*313 la_data_out[21]
*314 la_data_out[22]
*315 la_data_out[23]
*316 la_data_out[24]
*317 la_data_out[25]
*318 la_data_out[26]
*319 la_data_out[27]
*320 la_data_out[28]
*321 la_data_out[29]
*322 la_data_out[2]
*323 la_data_out[30]
*324 la_data_out[31]
*325 la_data_out[32]
*326 la_data_out[33]
*327 la_data_out[34]
*328 la_data_out[35]
*329 la_data_out[36]
*330 la_data_out[37]
*331 la_data_out[38]
*332 la_data_out[39]
*333 la_data_out[3]
*334 la_data_out[40]
*335 la_data_out[41]
*336 la_data_out[42]
*337 la_data_out[43]
*338 la_data_out[44]
*339 la_data_out[45]
*340 la_data_out[46]
*341 la_data_out[47]
*342 la_data_out[48]
*343 la_data_out[49]
*344 la_data_out[4]
*345 la_data_out[50]
*346 la_data_out[51]
*347 la_data_out[52]
*348 la_data_out[53]
*349 la_data_out[54]
*350 la_data_out[55]
*351 la_data_out[56]
*352 la_data_out[57]
*353 la_data_out[58]
*354 la_data_out[59]
*355 la_data_out[5]
*356 la_data_out[60]
*357 la_data_out[61]
*358 la_data_out[62]
*359 la_data_out[63]
*360 la_data_out[64]
*361 la_data_out[65]
*362 la_data_out[66]
*363 la_data_out[67]
*364 la_data_out[68]
*365 la_data_out[69]
*366 la_data_out[6]
*367 la_data_out[70]
*368 la_data_out[71]
*369 la_data_out[72]
*370 la_data_out[73]
*371 la_data_out[74]
*372 la_data_out[75]
*373 la_data_out[76]
*374 la_data_out[77]
*375 la_data_out[78]
*376 la_data_out[79]
*377 la_data_out[7]
*378 la_data_out[80]
*379 la_data_out[81]
*380 la_data_out[82]
*381 la_data_out[83]
*382 la_data_out[84]
*383 la_data_out[85]
*384 la_data_out[86]
*385 la_data_out[87]
*386 la_data_out[88]
*387 la_data_out[89]
*388 la_data_out[8]
*389 la_data_out[90]
*390 la_data_out[91]
*391 la_data_out[92]
*392 la_data_out[93]
*393 la_data_out[94]
*394 la_data_out[95]
*395 la_data_out[96]
*396 la_data_out[97]
*397 la_data_out[98]
*398 la_data_out[99]
*399 la_data_out[9]
*400 la_oenb[0]
*401 la_oenb[100]
*402 la_oenb[101]
*403 la_oenb[102]
*404 la_oenb[103]
*405 la_oenb[104]
*406 la_oenb[105]
*407 la_oenb[106]
*408 la_oenb[107]
*409 la_oenb[108]
*410 la_oenb[109]
*411 la_oenb[10]
*412 la_oenb[110]
*413 la_oenb[111]
*414 la_oenb[112]
*415 la_oenb[113]
*416 la_oenb[114]
*417 la_oenb[115]
*418 la_oenb[116]
*419 la_oenb[117]
*420 la_oenb[118]
*421 la_oenb[119]
*422 la_oenb[11]
*423 la_oenb[120]
*424 la_oenb[121]
*425 la_oenb[122]
*426 la_oenb[123]
*427 la_oenb[124]
*428 la_oenb[125]
*429 la_oenb[126]
*430 la_oenb[127]
*431 la_oenb[12]
*432 la_oenb[13]
*433 la_oenb[14]
*434 la_oenb[15]
*435 la_oenb[16]
*436 la_oenb[17]
*437 la_oenb[18]
*438 la_oenb[19]
*439 la_oenb[1]
*440 la_oenb[20]
*441 la_oenb[21]
*442 la_oenb[22]
*443 la_oenb[23]
*444 la_oenb[24]
*445 la_oenb[25]
*446 la_oenb[26]
*447 la_oenb[27]
*448 la_oenb[28]
*449 la_oenb[29]
*450 la_oenb[2]
*451 la_oenb[30]
*452 la_oenb[31]
*453 la_oenb[32]
*454 la_oenb[33]
*455 la_oenb[34]
*456 la_oenb[35]
*457 la_oenb[36]
*458 la_oenb[37]
*459 la_oenb[38]
*460 la_oenb[39]
*461 la_oenb[3]
*462 la_oenb[40]
*463 la_oenb[41]
*464 la_oenb[42]
*465 la_oenb[43]
*466 la_oenb[44]
*467 la_oenb[45]
*468 la_oenb[46]
*469 la_oenb[47]
*470 la_oenb[48]
*471 la_oenb[49]
*472 la_oenb[4]
*473 la_oenb[50]
*474 la_oenb[51]
*475 la_oenb[52]
*476 la_oenb[53]
*477 la_oenb[54]
*478 la_oenb[55]
*479 la_oenb[56]
*480 la_oenb[57]
*481 la_oenb[58]
*482 la_oenb[59]
*483 la_oenb[5]
*484 la_oenb[60]
*485 la_oenb[61]
*486 la_oenb[62]
*487 la_oenb[63]
*488 la_oenb[64]
*489 la_oenb[65]
*490 la_oenb[66]
*491 la_oenb[67]
*492 la_oenb[68]
*493 la_oenb[69]
*494 la_oenb[6]
*495 la_oenb[70]
*496 la_oenb[71]
*497 la_oenb[72]
*498 la_oenb[73]
*499 la_oenb[74]
*500 la_oenb[75]
*501 la_oenb[76]
*502 la_oenb[77]
*503 la_oenb[78]
*504 la_oenb[79]
*505 la_oenb[7]
*506 la_oenb[80]
*507 la_oenb[81]
*508 la_oenb[82]
*509 la_oenb[83]
*510 la_oenb[84]
*511 la_oenb[85]
*512 la_oenb[86]
*513 la_oenb[87]
*514 la_oenb[88]
*515 la_oenb[89]
*516 la_oenb[8]
*517 la_oenb[90]
*518 la_oenb[91]
*519 la_oenb[92]
*520 la_oenb[93]
*521 la_oenb[94]
*522 la_oenb[95]
*523 la_oenb[96]
*524 la_oenb[97]
*525 la_oenb[98]
*526 la_oenb[99]
*527 la_oenb[9]
*528 user_clock2
*529 user_irq[0]
*530 user_irq[1]
*531 user_irq[2]
*540 wb_clk_i
*541 wb_rst_i
*542 wbs_ack_o
*543 wbs_adr_i[0]
*544 wbs_adr_i[10]
*545 wbs_adr_i[11]
*546 wbs_adr_i[12]
*547 wbs_adr_i[13]
*548 wbs_adr_i[14]
*549 wbs_adr_i[15]
*550 wbs_adr_i[16]
*551 wbs_adr_i[17]
*552 wbs_adr_i[18]
*553 wbs_adr_i[19]
*554 wbs_adr_i[1]
*555 wbs_adr_i[20]
*556 wbs_adr_i[21]
*557 wbs_adr_i[22]
*558 wbs_adr_i[23]
*559 wbs_adr_i[24]
*560 wbs_adr_i[25]
*561 wbs_adr_i[26]
*562 wbs_adr_i[27]
*563 wbs_adr_i[28]
*564 wbs_adr_i[29]
*565 wbs_adr_i[2]
*566 wbs_adr_i[30]
*567 wbs_adr_i[31]
*568 wbs_adr_i[3]
*569 wbs_adr_i[4]
*570 wbs_adr_i[5]
*571 wbs_adr_i[6]
*572 wbs_adr_i[7]
*573 wbs_adr_i[8]
*574 wbs_adr_i[9]
*575 wbs_cyc_i
*576 wbs_dat_i[0]
*577 wbs_dat_i[10]
*578 wbs_dat_i[11]
*579 wbs_dat_i[12]
*580 wbs_dat_i[13]
*581 wbs_dat_i[14]
*582 wbs_dat_i[15]
*583 wbs_dat_i[16]
*584 wbs_dat_i[17]
*585 wbs_dat_i[18]
*586 wbs_dat_i[19]
*587 wbs_dat_i[1]
*588 wbs_dat_i[20]
*589 wbs_dat_i[21]
*590 wbs_dat_i[22]
*591 wbs_dat_i[23]
*592 wbs_dat_i[24]
*593 wbs_dat_i[25]
*594 wbs_dat_i[26]
*595 wbs_dat_i[27]
*596 wbs_dat_i[28]
*597 wbs_dat_i[29]
*598 wbs_dat_i[2]
*599 wbs_dat_i[30]
*600 wbs_dat_i[31]
*601 wbs_dat_i[3]
*602 wbs_dat_i[4]
*603 wbs_dat_i[5]
*604 wbs_dat_i[6]
*605 wbs_dat_i[7]
*606 wbs_dat_i[8]
*607 wbs_dat_i[9]
*608 wbs_dat_o[0]
*609 wbs_dat_o[10]
*610 wbs_dat_o[11]
*611 wbs_dat_o[12]
*612 wbs_dat_o[13]
*613 wbs_dat_o[14]
*614 wbs_dat_o[15]
*615 wbs_dat_o[16]
*616 wbs_dat_o[17]
*617 wbs_dat_o[18]
*618 wbs_dat_o[19]
*619 wbs_dat_o[1]
*620 wbs_dat_o[20]
*621 wbs_dat_o[21]
*622 wbs_dat_o[22]
*623 wbs_dat_o[23]
*624 wbs_dat_o[24]
*625 wbs_dat_o[25]
*626 wbs_dat_o[26]
*627 wbs_dat_o[27]
*628 wbs_dat_o[28]
*629 wbs_dat_o[29]
*630 wbs_dat_o[2]
*631 wbs_dat_o[30]
*632 wbs_dat_o[31]
*633 wbs_dat_o[3]
*634 wbs_dat_o[4]
*635 wbs_dat_o[5]
*636 wbs_dat_o[6]
*637 wbs_dat_o[7]
*638 wbs_dat_o[8]
*639 wbs_dat_o[9]
*640 wbs_sel_i[0]
*641 wbs_sel_i[1]
*642 wbs_sel_i[2]
*643 wbs_sel_i[3]
*644 wbs_stb_i
*645 wbs_we_i
*646 mprj

*PORTS
analog_io[0] I
analog_io[10] I
analog_io[11] I
analog_io[12] I
analog_io[13] I
analog_io[14] I
analog_io[15] I
analog_io[16] I
analog_io[17] I
analog_io[18] I
analog_io[19] I
analog_io[1] I
analog_io[20] I
analog_io[21] I
analog_io[22] I
analog_io[23] I
analog_io[24] I
analog_io[25] I
analog_io[26] I
analog_io[27] I
analog_io[28] I
analog_io[2] I
analog_io[3] I
analog_io[4] I
analog_io[5] I
analog_io[6] I
analog_io[7] I
analog_io[8] I
analog_io[9] I
io_in[0] I
io_in[10] I
io_in[11] I
io_in[12] I
io_in[13] I
io_in[14] I
io_in[15] I
io_in[16] I
io_in[17] I
io_in[18] I
io_in[19] I
io_in[1] I
io_in[20] I
io_in[21] I
io_in[22] I
io_in[23] I
io_in[24] I
io_in[25] I
io_in[26] I
io_in[27] I
io_in[28] I
io_in[29] I
io_in[2] I
io_in[30] I
io_in[31] I
io_in[32] I
io_in[33] I
io_in[34] I
io_in[35] I
io_in[36] I
io_in[37] I
io_in[3] I
io_in[4] I
io_in[5] I
io_in[6] I
io_in[7] I
io_in[8] I
io_in[9] I
io_oeb[0] O
io_oeb[10] O
io_oeb[11] O
io_oeb[12] O
io_oeb[13] O
io_oeb[14] O
io_oeb[15] O
io_oeb[16] O
io_oeb[17] O
io_oeb[18] O
io_oeb[19] O
io_oeb[1] O
io_oeb[20] O
io_oeb[21] O
io_oeb[22] O
io_oeb[23] O
io_oeb[24] O
io_oeb[25] O
io_oeb[26] O
io_oeb[27] O
io_oeb[28] O
io_oeb[29] O
io_oeb[2] O
io_oeb[30] O
io_oeb[31] O
io_oeb[32] O
io_oeb[33] O
io_oeb[34] O
io_oeb[35] O
io_oeb[36] O
io_oeb[37] O
io_oeb[3] O
io_oeb[4] O
io_oeb[5] O
io_oeb[6] O
io_oeb[7] O
io_oeb[8] O
io_oeb[9] O
io_out[0] O
io_out[10] O
io_out[11] O
io_out[12] O
io_out[13] O
io_out[14] O
io_out[15] O
io_out[16] O
io_out[17] O
io_out[18] O
io_out[19] O
io_out[1] O
io_out[20] O
io_out[21] O
io_out[22] O
io_out[23] O
io_out[24] O
io_out[25] O
io_out[26] O
io_out[27] O
io_out[28] O
io_out[29] O
io_out[2] O
io_out[30] O
io_out[31] O
io_out[32] O
io_out[33] O
io_out[34] O
io_out[35] O
io_out[36] O
io_out[37] O
io_out[3] O
io_out[4] O
io_out[5] O
io_out[6] O
io_out[7] O
io_out[8] O
io_out[9] O
la_data_in[0] I
la_data_in[100] I
la_data_in[101] I
la_data_in[102] I
la_data_in[103] I
la_data_in[104] I
la_data_in[105] I
la_data_in[106] I
la_data_in[107] I
la_data_in[108] I
la_data_in[109] I
la_data_in[10] I
la_data_in[110] I
la_data_in[111] I
la_data_in[112] I
la_data_in[113] I
la_data_in[114] I
la_data_in[115] I
la_data_in[116] I
la_data_in[117] I
la_data_in[118] I
la_data_in[119] I
la_data_in[11] I
la_data_in[120] I
la_data_in[121] I
la_data_in[122] I
la_data_in[123] I
la_data_in[124] I
la_data_in[125] I
la_data_in[126] I
la_data_in[127] I
la_data_in[12] I
la_data_in[13] I
la_data_in[14] I
la_data_in[15] I
la_data_in[16] I
la_data_in[17] I
la_data_in[18] I
la_data_in[19] I
la_data_in[1] I
la_data_in[20] I
la_data_in[21] I
la_data_in[22] I
la_data_in[23] I
la_data_in[24] I
la_data_in[25] I
la_data_in[26] I
la_data_in[27] I
la_data_in[28] I
la_data_in[29] I
la_data_in[2] I
la_data_in[30] I
la_data_in[31] I
la_data_in[32] I
la_data_in[33] I
la_data_in[34] I
la_data_in[35] I
la_data_in[36] I
la_data_in[37] I
la_data_in[38] I
la_data_in[39] I
la_data_in[3] I
la_data_in[40] I
la_data_in[41] I
la_data_in[42] I
la_data_in[43] I
la_data_in[44] I
la_data_in[45] I
la_data_in[46] I
la_data_in[47] I
la_data_in[48] I
la_data_in[49] I
la_data_in[4] I
la_data_in[50] I
la_data_in[51] I
la_data_in[52] I
la_data_in[53] I
la_data_in[54] I
la_data_in[55] I
la_data_in[56] I
la_data_in[57] I
la_data_in[58] I
la_data_in[59] I
la_data_in[5] I
la_data_in[60] I
la_data_in[61] I
la_data_in[62] I
la_data_in[63] I
la_data_in[64] I
la_data_in[65] I
la_data_in[66] I
la_data_in[67] I
la_data_in[68] I
la_data_in[69] I
la_data_in[6] I
la_data_in[70] I
la_data_in[71] I
la_data_in[72] I
la_data_in[73] I
la_data_in[74] I
la_data_in[75] I
la_data_in[76] I
la_data_in[77] I
la_data_in[78] I
la_data_in[79] I
la_data_in[7] I
la_data_in[80] I
la_data_in[81] I
la_data_in[82] I
la_data_in[83] I
la_data_in[84] I
la_data_in[85] I
la_data_in[86] I
la_data_in[87] I
la_data_in[88] I
la_data_in[89] I
la_data_in[8] I
la_data_in[90] I
la_data_in[91] I
la_data_in[92] I
la_data_in[93] I
la_data_in[94] I
la_data_in[95] I
la_data_in[96] I
la_data_in[97] I
la_data_in[98] I
la_data_in[99] I
la_data_in[9] I
la_data_out[0] O
la_data_out[100] O
la_data_out[101] O
la_data_out[102] O
la_data_out[103] O
la_data_out[104] O
la_data_out[105] O
la_data_out[106] O
la_data_out[107] O
la_data_out[108] O
la_data_out[109] O
la_data_out[10] O
la_data_out[110] O
la_data_out[111] O
la_data_out[112] O
la_data_out[113] O
la_data_out[114] O
la_data_out[115] O
la_data_out[116] O
la_data_out[117] O
la_data_out[118] O
la_data_out[119] O
la_data_out[11] O
la_data_out[120] O
la_data_out[121] O
la_data_out[122] O
la_data_out[123] O
la_data_out[124] O
la_data_out[125] O
la_data_out[126] O
la_data_out[127] O
la_data_out[12] O
la_data_out[13] O
la_data_out[14] O
la_data_out[15] O
la_data_out[16] O
la_data_out[17] O
la_data_out[18] O
la_data_out[19] O
la_data_out[1] O
la_data_out[20] O
la_data_out[21] O
la_data_out[22] O
la_data_out[23] O
la_data_out[24] O
la_data_out[25] O
la_data_out[26] O
la_data_out[27] O
la_data_out[28] O
la_data_out[29] O
la_data_out[2] O
la_data_out[30] O
la_data_out[31] O
la_data_out[32] O
la_data_out[33] O
la_data_out[34] O
la_data_out[35] O
la_data_out[36] O
la_data_out[37] O
la_data_out[38] O
la_data_out[39] O
la_data_out[3] O
la_data_out[40] O
la_data_out[41] O
la_data_out[42] O
la_data_out[43] O
la_data_out[44] O
la_data_out[45] O
la_data_out[46] O
la_data_out[47] O
la_data_out[48] O
la_data_out[49] O
la_data_out[4] O
la_data_out[50] O
la_data_out[51] O
la_data_out[52] O
la_data_out[53] O
la_data_out[54] O
la_data_out[55] O
la_data_out[56] O
la_data_out[57] O
la_data_out[58] O
la_data_out[59] O
la_data_out[5] O
la_data_out[60] O
la_data_out[61] O
la_data_out[62] O
la_data_out[63] O
la_data_out[64] O
la_data_out[65] O
la_data_out[66] O
la_data_out[67] O
la_data_out[68] O
la_data_out[69] O
la_data_out[6] O
la_data_out[70] O
la_data_out[71] O
la_data_out[72] O
la_data_out[73] O
la_data_out[74] O
la_data_out[75] O
la_data_out[76] O
la_data_out[77] O
la_data_out[78] O
la_data_out[79] O
la_data_out[7] O
la_data_out[80] O
la_data_out[81] O
la_data_out[82] O
la_data_out[83] O
la_data_out[84] O
la_data_out[85] O
la_data_out[86] O
la_data_out[87] O
la_data_out[88] O
la_data_out[89] O
la_data_out[8] O
la_data_out[90] O
la_data_out[91] O
la_data_out[92] O
la_data_out[93] O
la_data_out[94] O
la_data_out[95] O
la_data_out[96] O
la_data_out[97] O
la_data_out[98] O
la_data_out[99] O
la_data_out[9] O
la_oenb[0] I
la_oenb[100] I
la_oenb[101] I
la_oenb[102] I
la_oenb[103] I
la_oenb[104] I
la_oenb[105] I
la_oenb[106] I
la_oenb[107] I
la_oenb[108] I
la_oenb[109] I
la_oenb[10] I
la_oenb[110] I
la_oenb[111] I
la_oenb[112] I
la_oenb[113] I
la_oenb[114] I
la_oenb[115] I
la_oenb[116] I
la_oenb[117] I
la_oenb[118] I
la_oenb[119] I
la_oenb[11] I
la_oenb[120] I
la_oenb[121] I
la_oenb[122] I
la_oenb[123] I
la_oenb[124] I
la_oenb[125] I
la_oenb[126] I
la_oenb[127] I
la_oenb[12] I
la_oenb[13] I
la_oenb[14] I
la_oenb[15] I
la_oenb[16] I
la_oenb[17] I
la_oenb[18] I
la_oenb[19] I
la_oenb[1] I
la_oenb[20] I
la_oenb[21] I
la_oenb[22] I
la_oenb[23] I
la_oenb[24] I
la_oenb[25] I
la_oenb[26] I
la_oenb[27] I
la_oenb[28] I
la_oenb[29] I
la_oenb[2] I
la_oenb[30] I
la_oenb[31] I
la_oenb[32] I
la_oenb[33] I
la_oenb[34] I
la_oenb[35] I
la_oenb[36] I
la_oenb[37] I
la_oenb[38] I
la_oenb[39] I
la_oenb[3] I
la_oenb[40] I
la_oenb[41] I
la_oenb[42] I
la_oenb[43] I
la_oenb[44] I
la_oenb[45] I
la_oenb[46] I
la_oenb[47] I
la_oenb[48] I
la_oenb[49] I
la_oenb[4] I
la_oenb[50] I
la_oenb[51] I
la_oenb[52] I
la_oenb[53] I
la_oenb[54] I
la_oenb[55] I
la_oenb[56] I
la_oenb[57] I
la_oenb[58] I
la_oenb[59] I
la_oenb[5] I
la_oenb[60] I
la_oenb[61] I
la_oenb[62] I
la_oenb[63] I
la_oenb[64] I
la_oenb[65] I
la_oenb[66] I
la_oenb[67] I
la_oenb[68] I
la_oenb[69] I
la_oenb[6] I
la_oenb[70] I
la_oenb[71] I
la_oenb[72] I
la_oenb[73] I
la_oenb[74] I
la_oenb[75] I
la_oenb[76] I
la_oenb[77] I
la_oenb[78] I
la_oenb[79] I
la_oenb[7] I
la_oenb[80] I
la_oenb[81] I
la_oenb[82] I
la_oenb[83] I
la_oenb[84] I
la_oenb[85] I
la_oenb[86] I
la_oenb[87] I
la_oenb[88] I
la_oenb[89] I
la_oenb[8] I
la_oenb[90] I
la_oenb[91] I
la_oenb[92] I
la_oenb[93] I
la_oenb[94] I
la_oenb[95] I
la_oenb[96] I
la_oenb[97] I
la_oenb[98] I
la_oenb[99] I
la_oenb[9] I
user_clock2 I
user_irq[0] O
user_irq[1] O
user_irq[2] O
wb_clk_i I
wb_rst_i I
wbs_ack_o O
wbs_adr_i[0] I
wbs_adr_i[10] I
wbs_adr_i[11] I
wbs_adr_i[12] I
wbs_adr_i[13] I
wbs_adr_i[14] I
wbs_adr_i[15] I
wbs_adr_i[16] I
wbs_adr_i[17] I
wbs_adr_i[18] I
wbs_adr_i[19] I
wbs_adr_i[1] I
wbs_adr_i[20] I
wbs_adr_i[21] I
wbs_adr_i[22] I
wbs_adr_i[23] I
wbs_adr_i[24] I
wbs_adr_i[25] I
wbs_adr_i[26] I
wbs_adr_i[27] I
wbs_adr_i[28] I
wbs_adr_i[29] I
wbs_adr_i[2] I
wbs_adr_i[30] I
wbs_adr_i[31] I
wbs_adr_i[3] I
wbs_adr_i[4] I
wbs_adr_i[5] I
wbs_adr_i[6] I
wbs_adr_i[7] I
wbs_adr_i[8] I
wbs_adr_i[9] I
wbs_cyc_i I
wbs_dat_i[0] I
wbs_dat_i[10] I
wbs_dat_i[11] I
wbs_dat_i[12] I
wbs_dat_i[13] I
wbs_dat_i[14] I
wbs_dat_i[15] I
wbs_dat_i[16] I
wbs_dat_i[17] I
wbs_dat_i[18] I
wbs_dat_i[19] I
wbs_dat_i[1] I
wbs_dat_i[20] I
wbs_dat_i[21] I
wbs_dat_i[22] I
wbs_dat_i[23] I
wbs_dat_i[24] I
wbs_dat_i[25] I
wbs_dat_i[26] I
wbs_dat_i[27] I
wbs_dat_i[28] I
wbs_dat_i[29] I
wbs_dat_i[2] I
wbs_dat_i[30] I
wbs_dat_i[31] I
wbs_dat_i[3] I
wbs_dat_i[4] I
wbs_dat_i[5] I
wbs_dat_i[6] I
wbs_dat_i[7] I
wbs_dat_i[8] I
wbs_dat_i[9] I
wbs_dat_o[0] O
wbs_dat_o[10] O
wbs_dat_o[11] O
wbs_dat_o[12] O
wbs_dat_o[13] O
wbs_dat_o[14] O
wbs_dat_o[15] O
wbs_dat_o[16] O
wbs_dat_o[17] O
wbs_dat_o[18] O
wbs_dat_o[19] O
wbs_dat_o[1] O
wbs_dat_o[20] O
wbs_dat_o[21] O
wbs_dat_o[22] O
wbs_dat_o[23] O
wbs_dat_o[24] O
wbs_dat_o[25] O
wbs_dat_o[26] O
wbs_dat_o[27] O
wbs_dat_o[28] O
wbs_dat_o[29] O
wbs_dat_o[2] O
wbs_dat_o[30] O
wbs_dat_o[31] O
wbs_dat_o[3] O
wbs_dat_o[4] O
wbs_dat_o[5] O
wbs_dat_o[6] O
wbs_dat_o[7] O
wbs_dat_o[8] O
wbs_dat_o[9] O
wbs_sel_i[0] I
wbs_sel_i[1] I
wbs_sel_i[2] I
wbs_sel_i[3] I
wbs_stb_i I
wbs_we_i I

*D_NET *30 0.00876771
*CONN
*P io_in[0] I
*I *646:io_io_in[0] I *D CaravelTopLevel
*CAP
1 io_in[0] 0.00438385
2 *646:io_io_in[0] 0.00438385
*RES
1 io_in[0] *646:io_io_in[0] 19.6165 
*END

*D_NET *31 0.146549
*CONN
*P io_in[10] I
*I *646:io_io_in[10] I *D CaravelTopLevel
*CAP
1 io_in[10] 0.00191141
2 *646:io_io_in[10] 0.0044828
3 *31:9 0.0395313
4 *31:7 0.0369599
5 *646:io_io_in[10] *64:9 0.00219428
6 *646:io_io_in[10] *66:17 0.00482157
7 *646:io_io_in[10] *108:7 0
8 *646:io_io_in[10] *142:9 0.00598268
9 *31:9 *35:17 0.0476633
10 *31:9 *66:9 0.00300155
11 *31:9 *70:9 0
12 *31:9 *104:9 0
*RES
1 io_in[10] *31:7 8.33403 
2 *31:7 *31:9 148.022 
3 *31:9 *646:io_io_in[10] 37.6451 
*END

*D_NET *32 0.186141
*CONN
*P io_in[11] I
*I *646:io_io_in[11] I *D CaravelTopLevel
*CAP
1 io_in[11] 0.00137581
2 *646:io_io_in[11] 0.00194447
3 *32:9 0.052458
4 *32:7 0.0518893
5 *32:9 *107:9 0.0784732
6 *32:9 *111:9 0
*RES
1 io_in[11] *32:7 7.18097 
2 *32:7 *32:9 194.896 
3 *32:9 *646:io_io_in[11] 8.76643 
*END

*D_NET *33 0.243555
*CONN
*P io_in[12] I
*I *646:io_io_in[12] I *D CaravelTopLevel
*CAP
1 io_in[12] 0.00236317
2 *646:io_io_in[12] 0.000710622
3 *33:9 0.0278382
4 *33:7 0.0294908
5 *646:io_io_in[12] *66:15 0
6 *33:9 *34:9 0
7 *33:9 *108:9 0.0898044
8 *33:9 *110:9 0.0933482
*RES
1 io_in[12] *33:7 10.2078 
2 *33:7 *33:9 218.547 
3 *33:9 *646:io_io_in[12] 5.73963 
*END

*D_NET *34 0.258531
*CONN
*P io_in[13] I
*I *646:io_io_in[13] I *D CaravelTopLevel
*CAP
1 io_in[13] 0.00205834
2 *646:io_io_in[13] 0.00104431
3 *34:9 0.0561896
4 *34:7 0.0572037
5 *34:9 *35:17 0
6 *34:9 *70:9 0.086232
7 *34:9 *72:9 0.0532567
8 *34:9 *108:9 0
9 *34:9 *110:9 0
10 *34:9 *142:9 0.00254655
11 *33:9 *34:9 0
*RES
1 io_in[13] *34:7 9.34297 
2 *34:7 *34:9 242.304 
3 *34:9 *646:io_io_in[13] 6.60443 
*END

*D_NET *35 0.223808
*CONN
*P io_in[14] I
*I *646:io_io_in[14] I *D CaravelTopLevel
*CAP
1 io_in[14] 0.000812109
2 *646:io_io_in[14] 0.00162747
3 *35:17 0.0605938
4 *35:15 0.0598761
5 *35:9 0.017331
6 *35:7 0.0172333
7 *35:9 *111:9 0.0186452
8 *35:15 io_out[12] 2.61244e-05
9 *35:17 *70:9 0
10 *31:9 *35:17 0.0476633
11 *34:9 *35:17 0
*RES
1 io_in[14] *35:7 5.73963 
2 *35:7 *35:9 72.4897 
3 *35:9 *35:15 9.31727 
4 *35:15 *35:17 193.618 
5 *35:17 *646:io_io_in[14] 7.7575 
*END

*D_NET *36 0.152008
*CONN
*P io_in[15] I
*I *646:io_io_in[15] I *D CaravelTopLevel
*CAP
1 io_in[15] 0.0750077
2 *646:io_io_in[15] 0.000996458
3 *36:5 0.0760041
*RES
1 io_in[15] *36:5 1545.85 
2 *36:5 *646:io_io_in[15] 20.2854 
*END

*D_NET *37 0.153369
*CONN
*P io_in[16] I
*I *646:io_io_in[16] I *D CaravelTopLevel
*CAP
1 io_in[16] 0.0750077
2 *646:io_io_in[16] 0.00167666
3 *37:5 0.0766843
*RES
1 io_in[16] *37:5 1545.85 
2 *37:5 *646:io_io_in[16] 23.2497 
*END

*D_NET *38 0.154631
*CONN
*P io_in[17] I
*I *646:io_io_in[17] I *D CaravelTopLevel
*CAP
1 io_in[17] 0.0751562
2 *646:io_io_in[17] 0.00215905
3 *38:5 0.0773153
*RES
1 io_in[17] *38:5 1548.88 
2 *38:5 *646:io_io_in[17] 22.448 
*END

*D_NET *39 0.156543
*CONN
*P io_in[18] I
*I *646:io_io_in[18] I *D CaravelTopLevel
*CAP
1 io_in[18] 0.00161723
2 *646:io_io_in[18] 0.00220306
3 *39:13 0.0766543
4 *39:11 0.0760684
*RES
1 io_in[18] *39:11 26.0915 
2 *39:11 *39:13 1534.38 
3 *39:13 *646:io_io_in[18] 19.5558 
*END

*D_NET *40 0.157735
*CONN
*P io_in[19] I
*I *646:io_io_in[19] I *D CaravelTopLevel
*CAP
1 io_in[19] 0.0751562
2 *646:io_io_in[19] 0.00371133
3 *40:5 0.0788675
*RES
1 io_in[19] *40:5 1548.88 
2 *40:5 *646:io_io_in[19] 26.772 
*END

*D_NET *41 0.0130125
*CONN
*P io_in[1] I
*I *646:io_io_in[1] I *D CaravelTopLevel
*CAP
1 io_in[1] 0.00650627
2 *646:io_io_in[1] 0.00650627
*RES
1 io_in[1] *646:io_io_in[1] 25.5824 
*END

*D_NET *42 0.159044
*CONN
*P io_in[20] I
*I *646:io_io_in[20] I *D CaravelTopLevel
*CAP
1 io_in[20] 0.0751562
2 *646:io_io_in[20] 0.00436593
3 *42:5 0.0795221
*RES
1 io_in[20] *42:5 1548.88 
2 *42:5 *646:io_io_in[20] 29.0061 
*END

*D_NET *43 0.160281
*CONN
*P io_in[21] I
*I *646:io_io_in[21] I *D CaravelTopLevel
*CAP
1 io_in[21] 0.0751562
2 *646:io_io_in[21] 0.00498443
3 *43:5 0.0801406
*RES
1 io_in[21] *43:5 1548.88 
2 *43:5 *646:io_io_in[21] 31.1681 
*END

*D_NET *44 0.162031
*CONN
*P io_in[22] I
*I *646:io_io_in[22] I *D CaravelTopLevel
*CAP
1 io_in[22] 0.0751419
2 *646:io_io_in[22] 0.00585669
3 *44:5 0.0809986
4 *44:5 *120:15 3.40128e-05
*RES
1 io_in[22] *44:5 1548.88 
2 *44:5 *646:io_io_in[22] 33.3301 
*END

*D_NET *45 0.16367
*CONN
*P io_in[23] I
*I *646:io_io_in[23] I *D CaravelTopLevel
*CAP
1 io_in[23] 0.0751643
2 *646:io_io_in[23] 0.00667062
3 *45:5 0.0818349
*RES
1 io_in[23] *45:5 1548.88 
2 *45:5 *646:io_io_in[23] 35.5642 
*END

*D_NET *46 0.203348
*CONN
*P io_in[24] I
*I *646:io_io_in[24] I *D CaravelTopLevel
*CAP
1 io_in[24] 0.00991931
2 *646:io_io_in[24] 0.00203192
3 *46:21 0.00771235
4 *46:19 0.00604168
5 *46:13 0.046619
6 *46:11 0.056177
7 *46:11 *122:17 0.0137413
8 *46:13 *47:9 0.0364258
9 *46:13 *122:9 0.0106645
10 *46:13 *122:17 0
11 *46:13 *123:9 0.00709591
12 *46:13 *125:17 0.00635839
13 *46:19 *53:11 0.000560878
*RES
1 io_in[24] *46:11 45.3168 
2 *46:11 *46:13 206.418 
3 *46:13 *46:19 7.91197 
4 *46:19 *46:21 113.054 
5 *46:21 *646:io_io_in[24] 8.58627 
*END

*D_NET *47 0.207143
*CONN
*P io_in[25] I
*I *646:io_io_in[25] I *D CaravelTopLevel
*CAP
1 io_in[25] 0.00123163
2 *646:io_io_in[25] 0.002223
3 *47:9 0.0454009
4 *47:7 0.0444095
5 *47:9 *49:9 0.0774525
6 *47:9 *125:17 0
7 *47:9 *129:17 0
8 *46:13 *47:9 0.0364258
*RES
1 io_in[25] *47:7 6.8927 
2 *47:7 *47:9 243.263 
3 *47:9 *646:io_io_in[25] 9.19883 
*END

*D_NET *48 0.182635
*CONN
*P io_in[26] I
*I *646:io_io_in[26] I *D CaravelTopLevel
*CAP
1 io_in[26] 0.0021675
2 *646:io_io_in[26] 0.00129994
3 *48:9 0.0556164
4 *48:7 0.0564839
5 *48:9 *50:9 0.0670674
6 *48:9 *84:9 0
7 *48:9 *85:9 0
8 *48:9 *86:9 0
9 *48:9 *88:9 0
*RES
1 io_in[26] *48:7 9.0547 
2 *48:7 *48:9 221.636 
3 *48:9 *646:io_io_in[26] 7.03683 
*END

*D_NET *49 0.230009
*CONN
*P io_in[27] I
*I *646:io_io_in[27] I *D CaravelTopLevel
*CAP
1 io_in[27] 0.0013507
2 *646:io_io_in[27] 0.00207849
3 *49:9 0.0242266
4 *49:7 0.0234988
5 *49:9 *53:13 0.00247877
6 *49:9 *54:9 0.0175031
7 *49:9 *87:17 0.0814199
8 *49:9 *129:17 0
9 *47:9 *49:9 0.0774525
*RES
1 io_in[27] *49:7 7.03683 
2 *49:7 *49:9 200.01 
3 *49:9 *646:io_io_in[27] 9.0547 
*END

*D_NET *50 0.195425
*CONN
*P io_in[28] I
*I *646:io_io_in[28] I *D CaravelTopLevel
*CAP
1 io_in[28] 0.00224835
2 *646:io_io_in[28] 0.00120625
3 *50:9 0.0254013
4 *50:7 0.0264434
5 *50:9 *51:9 0.0658863
6 *50:9 *55:9 0.00717159
7 *50:9 *86:9 0
8 *50:9 *88:9 0
9 *48:9 *50:9 0.0670674
*RES
1 io_in[28] *50:7 9.19883 
2 *50:7 *50:9 178.277 
3 *50:9 *646:io_io_in[28] 6.8927 
*END

*D_NET *51 0.172624
*CONN
*P io_in[29] I
*I *646:io_io_in[29] I *D CaravelTopLevel
*CAP
1 io_in[29] 0.00235198
2 *646:io_io_in[29] 0.00120421
3 *51:9 0.0213653
4 *51:7 0.0225131
5 *51:9 *55:9 0.0048899
6 *51:9 *86:9 0
7 *51:9 *89:15 0.00102816
8 *51:9 *89:17 0.0533848
9 *50:9 *51:9 0.0658863
*RES
1 io_in[29] *51:7 9.34297 
2 *51:7 *51:9 156.651 
3 *51:9 *646:io_io_in[29] 6.74857 
*END

*D_NET *52 0.020656
*CONN
*P io_in[2] I
*I *646:io_io_in[2] I *D CaravelTopLevel
*CAP
1 io_in[2] 0.00986098
2 *646:io_io_in[2] 0.00986098
3 *646:io_io_in[2] io_out[1] 0
4 *646:io_io_in[2] *61:11 0.000934006
*RES
1 io_in[2] *646:io_io_in[2] 38.8991 
*END

*D_NET *53 0.129968
*CONN
*P io_in[30] I
*I *646:io_io_in[30] I *D CaravelTopLevel
*CAP
1 io_in[30] 0.00146398
2 *646:io_io_in[30] 0.00186581
3 *53:13 0.0405335
4 *53:11 0.0401317
5 *53:13 *54:9 0.00985923
6 *53:13 *87:17 0.0325066
7 *53:13 *132:9 0.000567781
8 *46:19 *53:11 0.000560878
9 *49:9 *53:13 0.00247877
*RES
1 io_in[30] *53:11 7.52563 
2 *53:11 *53:13 135.025 
3 *53:13 *646:io_io_in[30] 8.76643 
*END

*D_NET *54 0.0945101
*CONN
*P io_in[31] I
*I *646:io_io_in[31] I *D CaravelTopLevel
*CAP
1 io_in[31] 0.00131532
2 *646:io_io_in[31] 0.00201994
3 *54:9 0.0271379
4 *54:7 0.0264333
5 *54:9 *94:9 0
6 *54:9 *129:17 0
7 *54:9 *130:17 0
8 *54:9 *131:17 0
9 *54:9 *132:9 0.0102412
10 *49:9 *54:9 0.0175031
11 *53:13 *54:9 0.00985923
*RES
1 io_in[31] *54:7 6.8927 
2 *54:7 *54:9 113.292 
3 *54:9 *646:io_io_in[31] 9.19883 
*END

*D_NET *55 0.0704334
*CONN
*P io_in[32] I
*I *646:io_io_in[32] I *D CaravelTopLevel
*CAP
1 io_in[32] 0.00224191
2 *646:io_io_in[32] 0.00118318
3 *55:9 0.0269235
4 *55:7 0.0279823
5 *646:io_io_in[32] io_out[34] 4.10248e-05
6 *55:9 *88:9 0
7 *55:9 *89:15 0
8 *50:9 *55:9 0.00717159
9 *51:9 *55:9 0.0048899
*RES
1 io_in[32] *55:7 9.0547 
2 *55:7 *55:9 91.6657 
3 *55:9 *646:io_io_in[32] 7.03683 
*END

*D_NET *56 0.0701918
*CONN
*P io_in[33] I
*I *646:io_io_in[33] I *D CaravelTopLevel
*CAP
1 io_in[33] 0.000931181
2 *646:io_io_in[33] 0.00251961
3 *56:9 0.0120059
4 *56:7 0.0104175
5 *56:9 io_oeb[34] 0.00413806
6 *56:9 *93:17 0.0155989
7 *56:9 *94:9 0.00553038
8 *56:9 *131:17 0.0190503
*RES
1 io_in[33] *56:7 5.88377 
2 *56:7 *56:9 69.9329 
3 *56:9 *646:io_io_in[33] 10.2078 
*END

*D_NET *57 0.052622
*CONN
*P io_in[34] I
*I *646:io_io_in[34] I *D CaravelTopLevel
*CAP
1 io_in[34] 0.00109517
2 *646:io_io_in[34] 0.00229313
3 *57:9 0.0123199
4 *57:7 0.011122
5 *57:7 *131:15 0
6 *57:9 io_oeb[34] 0.00173491
7 *57:9 *93:15 0.000716979
8 *57:9 *94:9 0.020018
9 *57:9 *131:9 0.00332194
10 *57:9 *132:9 0
*RES
1 io_in[34] *57:7 6.31617 
2 *57:7 *57:9 48.3066 
3 *57:9 *646:io_io_in[34] 9.77537 
*END

*D_NET *58 0.0287595
*CONN
*P io_in[35] I
*I *646:io_io_in[35] I *D CaravelTopLevel
*CAP
1 io_in[35] 0.00870137
2 *646:io_io_in[35] 0.00870137
3 *646:io_io_in[35] io_oeb[34] 0.00969697
4 *646:io_io_in[35] io_out[35] 0.00165975
*RES
1 io_in[35] *646:io_io_in[35] 42.6653 
*END

*D_NET *59 0.0158199
*CONN
*P io_in[36] I
*I *646:io_io_in[36] I *D CaravelTopLevel
*CAP
1 io_in[36] 0.00790996
2 *646:io_io_in[36] 0.00790996
*RES
1 io_in[36] *646:io_io_in[36] 31.2663 
*END

*D_NET *60 0.00933521
*CONN
*P io_in[37] I
*I *646:io_io_in[37] I *D CaravelTopLevel
*CAP
1 io_in[37] 0.0046676
2 *646:io_io_in[37] 0.0046676
*RES
1 io_in[37] *646:io_io_in[37] 19.7607 
*END

*D_NET *61 0.0310928
*CONN
*P io_in[3] I
*I *646:io_io_in[3] I *D CaravelTopLevel
*CAP
1 io_in[3] 0.0101759
2 *646:io_io_in[3] 0.00226182
3 *61:11 0.0124377
4 *61:11 *62:9 0.00224241
5 *61:11 *100:9 0.00304102
6 *646:io_io_in[2] *61:11 0.000934006
*RES
1 io_in[3] *61:11 45.2738 
2 *61:11 *646:io_io_in[3] 6.9419 
*END

*D_NET *62 0.0517722
*CONN
*P io_in[4] I
*I *646:io_io_in[4] I *D CaravelTopLevel
*CAP
1 io_in[4] 0.00100214
2 *646:io_io_in[4] 0.00213307
3 *62:9 0.0106153
4 *62:7 0.00948439
5 *62:9 *63:9 0.0151383
6 *62:9 *100:9 0.00150494
7 *62:9 *101:9 0.00945383
8 *62:9 *102:9 0.000197779
9 *61:11 *62:9 0.00224241
*RES
1 io_in[4] *62:7 6.0279 
2 *62:7 *62:9 49.585 
3 *62:9 *646:io_io_in[4] 9.9195 
*END

*D_NET *63 0.0769682
*CONN
*P io_in[5] I
*I *646:io_io_in[5] I *D CaravelTopLevel
*CAP
1 io_in[5] 0.000905548
2 *646:io_io_in[5] 0.00234336
3 *63:9 0.00995814
4 *63:7 0.00852033
5 *63:9 *100:9 0.0251542
6 *63:9 *101:9 0.00261955
7 *63:9 *102:9 0.00226064
8 *63:9 *141:9 0.0100681
9 *62:9 *63:9 0.0151383
*RES
1 io_in[5] *63:7 5.88377 
2 *63:7 *63:9 62.9017 
3 *63:9 *646:io_io_in[5] 10.0636 
*END

*D_NET *64 0.0684575
*CONN
*P io_in[6] I
*I *646:io_io_in[6] I *D CaravelTopLevel
*CAP
1 io_in[6] 0.0026509
2 *646:io_io_in[6] 0.00066771
3 *64:9 0.0171591
4 *64:7 0.0191423
5 *64:9 *646:io_io_in[7] 0.000453996
6 *64:9 *65:9 0
7 *64:9 *66:17 0.0192701
8 *64:9 *99:11 0.00165005
9 *64:9 *139:9 0
10 *64:9 *142:9 0.00526913
11 *646:io_io_in[10] *64:9 0.00219428
*RES
1 io_in[6] *64:7 10.3519 
2 *64:7 *64:9 76.2183 
3 *64:9 *646:io_io_in[6] 5.5955 
*END

*D_NET *65 0.0859296
*CONN
*P io_in[7] I
*I *646:io_io_in[7] I *D CaravelTopLevel
*CAP
1 io_in[7] 0.00235543
2 *646:io_io_in[7] 0.00283536
3 *65:9 0.0210243
4 *65:7 0.0205444
5 *646:io_io_in[7] *139:9 0.000450998
6 *65:9 *70:9 0.00790075
7 *65:9 *104:9 0.0117382
8 *65:9 *139:9 0.0143536
9 *65:9 *142:9 0.00427257
10 *64:9 *646:io_io_in[7] 0.000453996
11 *64:9 *65:9 0
*RES
1 io_in[7] *65:7 9.34297 
2 *65:7 *65:9 92.4365 
3 *65:9 *646:io_io_in[7] 14.2372 
*END

*D_NET *66 0.11149
*CONN
*P io_in[8] I
*I *646:io_io_in[8] I *D CaravelTopLevel
*CAP
1 io_in[8] 0.00210089
2 *646:io_io_in[8] 0.000675911
3 *66:17 0.0162776
4 *66:15 0.0162484
5 *66:9 0.0101267
6 *66:7 0.0115809
7 *66:9 *104:9 0.0254019
8 *66:17 *108:9 0.00195641
9 *66:17 *142:9 2.77952e-05
10 *646:io_io_in[10] *66:17 0.00482157
11 *646:io_io_in[12] *66:15 0
12 *31:9 *66:9 0.00300155
13 *64:9 *66:17 0.0192701
*RES
1 io_in[8] *66:7 8.91057 
2 *66:7 *66:9 52.9941 
3 *66:9 *66:15 8.45247 
4 *66:15 *66:17 70.7851 
5 *66:17 *646:io_io_in[8] 5.45137 
*END

*D_NET *67 0.136599
*CONN
*P io_in[9] I
*I *646:io_io_in[9] I *D CaravelTopLevel
*CAP
1 io_in[9] 0.000769184
2 *646:io_io_in[9] 0.00243494
3 *67:9 0.0331213
4 *67:7 0.0314556
5 *67:9 *141:9 0.00103098
6 *67:9 *143:9 0.0677867
*RES
1 io_in[9] *67:7 5.5955 
2 *67:7 *67:9 147.383 
3 *67:9 *646:io_io_in[9] 10.3519 
*END

*D_NET *68 0.00912437
*CONN
*P io_oeb[0] O
*I *646:io_io_oeb[0] O *D CaravelTopLevel
*CAP
1 io_oeb[0] 0.00456219
2 *646:io_io_oeb[0] 0.00456219
*RES
1 *646:io_io_oeb[0] io_oeb[0] 21.2145 
*END

*D_NET *69 0.164671
*CONN
*P io_oeb[10] O
*I *646:io_io_oeb[10] O *D CaravelTopLevel
*CAP
1 io_oeb[10] 0.000815079
2 *646:io_io_oeb[10] 0.00250076
3 *69:9 0.0326958
4 *69:7 0.0343815
5 *69:9 *102:9 0.00351973
6 *69:9 *103:9 0.00297542
7 *69:9 *105:9 0.0159349
8 *69:9 *109:9 0.0698095
9 *69:9 *111:9 0.00203823
*RES
1 *646:io_io_oeb[10] *69:7 10.1717 
2 *69:7 *69:9 1025.59 
3 *69:9 io_oeb[10] 5.77567 
*END

*D_NET *70 0.206415
*CONN
*P io_oeb[11] O
*I *646:io_io_oeb[11] O *D CaravelTopLevel
*CAP
1 io_oeb[11] 0.00202956
2 *646:io_io_oeb[11] 0.00118264
3 *70:9 0.0360446
4 *70:7 0.0351976
5 *70:9 *104:9 0.0378282
6 *70:9 *142:9 0
7 *31:9 *70:9 0
8 *34:9 *70:9 0.086232
9 *35:17 *70:9 0
10 *65:9 *70:9 0.00790075
*RES
1 *646:io_io_oeb[11] *70:7 6.74857 
2 *70:7 *70:9 203.739 
3 *70:9 io_oeb[11] 9.19883 
*END

*D_NET *71 0.270937
*CONN
*P io_oeb[12] O
*I *646:io_io_oeb[12] O *D CaravelTopLevel
*CAP
1 io_oeb[12] 0.000883359
2 *646:io_io_oeb[12] 0.00234639
3 *71:9 0.0197567
4 *71:7 0.0212198
5 *71:9 *73:9 0.0891291
6 *71:9 *103:9 0.00897896
7 *71:9 *105:9 0.00323316
8 *71:9 *109:9 0.100925
9 *71:9 *111:9 0.0234393
10 *71:9 *141:9 0.00102606
*RES
1 *646:io_io_oeb[12] *71:7 10.0276 
2 *71:7 *71:9 1296.38 
3 *71:9 io_oeb[12] 5.9198 
*END

*D_NET *72 0.198527
*CONN
*P io_oeb[13] O
*I *646:io_io_oeb[13] O *D CaravelTopLevel
*CAP
1 io_oeb[13] 0.00200743
2 *646:io_io_oeb[13] 0.00112092
3 *72:9 0.0715144
4 *72:7 0.0706279
5 *34:9 *72:9 0.0532567
*RES
1 *646:io_io_oeb[13] *72:7 6.71253 
2 *72:7 *72:9 1431.16 
3 *72:9 io_oeb[13] 9.23487 
*END

*D_NET *73 0.262971
*CONN
*P io_oeb[14] O
*I *646:io_io_oeb[14] O *D CaravelTopLevel
*CAP
1 io_oeb[14] 0.000879467
2 *646:io_io_oeb[14] 0.00238839
3 *73:9 0.0572581
4 *73:7 0.058767
5 *73:9 *111:9 0.0545491
6 *71:9 *73:9 0.0891291
*RES
1 *646:io_io_oeb[14] *73:7 9.95553 
2 *73:7 *73:9 1566.55 
3 *73:9 io_oeb[14] 5.99187 
*END

*D_NET *74 0.155183
*CONN
*P io_oeb[15] O
*I *646:io_io_oeb[15] O *D CaravelTopLevel
*CAP
1 io_oeb[15] 0.0028641
2 *646:io_io_oeb[15] 7.61682e-05
3 *74:9 0.0775153
4 *74:7 0.0747274
*RES
1 *646:io_io_oeb[15] *74:7 1.60714 
2 *74:7 *74:9 1538.62 
3 *74:9 io_oeb[15] 29.7669 
*END

*D_NET *75 0.153591
*CONN
*P io_oeb[16] O
*I *646:io_io_oeb[16] O *D CaravelTopLevel
*CAP
1 io_oeb[16] 0.00206795
2 *646:io_io_oeb[16] 7.61682e-05
3 *75:9 0.0767191
4 *75:7 0.0747274
*RES
1 *646:io_io_oeb[16] *75:7 1.60714 
2 *75:7 *75:9 1538.62 
3 *75:9 io_oeb[16] 27.6049 
*END

*D_NET *76 0.1521
*CONN
*P io_oeb[17] O
*I *646:io_io_oeb[17] O *D CaravelTopLevel
*CAP
1 io_oeb[17] 0.00132256
2 *646:io_io_oeb[17] 7.61682e-05
3 *76:9 0.0759738
4 *76:7 0.0747274
*RES
1 *646:io_io_oeb[17] *76:7 1.60714 
2 *76:7 *76:9 1538.62 
3 *76:9 io_oeb[17] 25.4429 
*END

*D_NET *77 0.151483
*CONN
*P io_oeb[18] O
*I *646:io_io_oeb[18] O *D CaravelTopLevel
*CAP
1 io_oeb[18] 0.0750028
2 *646:io_io_oeb[18] 0.000738882
3 *77:9 0.0757417
*RES
1 *646:io_io_oeb[18] *77:9 15.1429 
2 *77:9 io_oeb[18] 1545.85 
*END

*D_NET *78 0.153042
*CONN
*P io_oeb[19] O
*I *646:io_io_oeb[19] O *D CaravelTopLevel
*CAP
1 io_oeb[19] 0.0751562
2 *646:io_io_oeb[19] 0.00136493
3 *78:15 0.0765211
*RES
1 *646:io_io_oeb[19] *78:15 19.7816 
2 *78:15 io_oeb[19] 1548.88 
*END

*D_NET *79 0.019572
*CONN
*P io_oeb[1] O
*I *646:io_io_oeb[1] O *D CaravelTopLevel
*CAP
1 io_oeb[1] 0.00800538
2 *646:io_io_oeb[1] 0.00800538
3 io_oeb[1] io_oeb[2] 0.000335016
4 io_oeb[1] io_out[2] 0.00322627
*RES
1 *646:io_io_oeb[1] io_oeb[1] 34.5312 
*END

*D_NET *80 0.154551
*CONN
*P io_oeb[20] O
*I *646:io_io_oeb[20] O *D CaravelTopLevel
*CAP
1 io_oeb[20] 0.0750077
2 *646:io_io_oeb[20] 0.00226789
3 *80:15 0.0772756
*RES
1 *646:io_io_oeb[20] *80:15 24.9793 
2 *80:15 io_oeb[20] 1545.85 
*END

*D_NET *81 0.155661
*CONN
*P io_oeb[21] O
*I *646:io_io_oeb[21] O *D CaravelTopLevel
*CAP
1 io_oeb[21] 0.0751562
2 *646:io_io_oeb[21] 0.00267416
3 *81:15 0.0778304
*RES
1 *646:io_io_oeb[21] *81:15 24.1776 
2 *81:15 io_oeb[21] 1548.88 
*END

*D_NET *82 0.15736
*CONN
*P io_oeb[22] O
*I *646:io_io_oeb[22] O *D CaravelTopLevel
*CAP
1 io_oeb[22] 0.0751562
2 *646:io_io_oeb[22] 0.00352359
3 *82:13 0.0786798
*RES
1 *646:io_io_oeb[22] *82:13 25.876 
2 *82:13 io_oeb[22] 1548.88 
*END

*D_NET *83 0.166442
*CONN
*P io_oeb[23] O
*I *646:io_io_oeb[23] O *D CaravelTopLevel
*CAP
1 io_oeb[23] 0.0751733
2 *646:io_io_oeb[23] 0.00434254
3 *83:15 0.0795159
4 io_oeb[23] *89:17 0.00741049
*RES
1 *646:io_io_oeb[23] *83:15 28.5016 
2 *83:15 io_oeb[23] 1548.88 
*END

*D_NET *84 0.237828
*CONN
*P io_oeb[24] O
*I *646:io_io_oeb[24] O *D CaravelTopLevel
*CAP
1 io_oeb[24] 0.00235678
2 *646:io_io_oeb[24] 0.000855035
3 *84:9 0.0759814
4 *84:7 0.0744796
5 *84:9 *86:9 0.0841551
6 *48:9 *84:9 0
*RES
1 *646:io_io_oeb[24] *84:7 5.88377 
2 *84:7 *84:9 257.325 
3 *84:9 io_oeb[24] 10.2078 
*END

*D_NET *85 0.230162
*CONN
*P io_oeb[25] O
*I *646:io_io_oeb[25] O *D CaravelTopLevel
*CAP
1 io_oeb[25] 0.00179561
2 *646:io_io_oeb[25] 0.00160823
3 *85:9 0.0863569
4 *85:7 0.0861696
5 *85:9 *88:9 0.0542315
6 *48:9 *85:9 0
*RES
1 *646:io_io_oeb[25] *85:7 7.90163 
2 *85:7 *85:9 235.699 
3 *85:9 io_oeb[25] 8.1899 
*END

*D_NET *86 0.189455
*CONN
*P io_oeb[26] O
*I *646:io_io_oeb[26] O *D CaravelTopLevel
*CAP
1 io_oeb[26] 0.00254832
2 *646:io_io_oeb[26] 0.00089796
3 *86:9 0.0484445
4 *86:7 0.0467941
5 *86:9 *87:15 0.00159735
6 *86:9 *89:17 0.00501792
7 *48:9 *86:9 0
8 *50:9 *86:9 0
9 *51:9 *86:9 0
10 *84:9 *86:9 0.0841551
*RES
1 *646:io_io_oeb[26] *86:7 6.0279 
2 *86:7 *86:9 213.966 
3 *86:9 io_oeb[26] 10.0636 
*END

*D_NET *87 0.196264
*CONN
*P io_oeb[27] O
*I *646:io_io_oeb[27] O *D CaravelTopLevel
*CAP
1 io_oeb[27] 0.00144439
2 *646:io_io_oeb[27] 0.00724477
3 *87:17 0.0311471
4 *87:15 0.0369474
5 *87:15 *89:17 0.00395631
6 *49:9 *87:17 0.0814199
7 *53:13 *87:17 0.0325066
8 *86:9 *87:15 0.00159735
*RES
1 *646:io_io_oeb[27] *87:15 38.3031 
2 *87:15 *87:17 169.861 
3 *87:17 io_oeb[27] 7.18097 
*END

*D_NET *88 0.147184
*CONN
*P io_oeb[28] O
*I *646:io_io_oeb[28] O *D CaravelTopLevel
*CAP
1 io_oeb[28] 0.00203028
2 *646:io_io_oeb[28] 0.00148913
3 *88:9 0.0449869
4 *88:7 0.0444458
5 *48:9 *88:9 0
6 *50:9 *88:9 0
7 *55:9 *88:9 0
8 *85:9 *88:9 0.0542315
*RES
1 *646:io_io_oeb[28] *88:7 7.7575 
2 *88:7 *88:9 170.607 
3 *88:9 io_oeb[28] 8.33403 
*END

*D_NET *89 0.141328
*CONN
*P io_oeb[29] O
*I *646:io_io_oeb[29] O *D CaravelTopLevel
*CAP
1 io_oeb[29] 0.00243123
2 *646:io_io_oeb[29] 0.0140431
3 *89:17 0.0212221
4 *89:15 0.032834
5 io_oeb[23] *89:17 0.00741049
6 *51:9 *89:15 0.00102816
7 *51:9 *89:17 0.0533848
8 *55:9 *89:15 0
9 *86:9 *89:17 0.00501792
10 *87:15 *89:17 0.00395631
*RES
1 *646:io_io_oeb[29] *89:15 44.3987 
2 *89:15 *89:17 111.374 
3 *89:17 io_oeb[29] 9.4871 
*END

*D_NET *90 0.0314055
*CONN
*P io_oeb[2] O
*I *646:io_io_oeb[2] O *D CaravelTopLevel
*CAP
1 io_oeb[2] 0.00996037
2 *646:io_io_oeb[2] 0.00996037
3 io_oeb[2] io_out[2] 0.00438242
4 io_oeb[2] *99:11 0.00676733
5 io_oeb[1] io_oeb[2] 0.000335016
*RES
1 *646:io_io_oeb[2] io_oeb[2] 47.8479 
*END

*D_NET *91 0.141422
*CONN
*P io_oeb[30] O
*I *646:io_io_oeb[30] O *D CaravelTopLevel
*CAP
1 io_oeb[30] 0.000931209
2 *646:io_io_oeb[30] 0.00232996
3 *91:17 0.0102534
4 *91:15 0.00957627
5 *91:9 0.00387143
6 *91:7 0.00594728
7 *91:9 *92:9 0.0017883
8 *91:9 *127:9 0.00946319
9 *91:9 *129:9 0.0183776
10 *91:9 *130:9 0.0115425
11 *91:9 *130:17 0.00216665
12 *91:9 *131:17 0.00129855
13 *91:17 *92:17 0.00719715
14 *91:17 *126:17 0.0151849
15 *91:17 *127:17 0.00247877
16 *91:17 *129:17 0.0341659
17 *91:17 *130:17 1.47871e-05
18 *91:17 *131:17 0.00483405
*RES
1 *646:io_io_oeb[30] *91:7 9.73933 
2 *91:7 *91:9 261.804 
3 *91:9 *91:15 7.33543 
4 *91:15 *91:17 81.4385 
5 *91:17 io_oeb[30] 5.88377 
*END

*D_NET *92 0.0954286
*CONN
*P io_oeb[31] O
*I *646:io_io_oeb[31] O *D CaravelTopLevel
*CAP
1 io_oeb[31] 0.000751668
2 *646:io_io_oeb[31] 0.00235068
3 *92:17 0.0210342
4 *92:15 0.0206708
5 *92:9 0.00482467
6 *92:7 0.00678717
7 *92:9 *94:9 0.00526625
8 *92:9 *130:9 0.00335326
9 *92:9 *131:9 0.00118691
10 *92:15 io_oeb[33] 0
11 *92:17 *93:17 0.0199777
12 *92:17 *127:17 0.000229636
13 *92:17 *131:17 1.03035e-05
14 *91:9 *92:9 0.0017883
15 *91:17 *92:17 0.00719715
*RES
1 *646:io_io_oeb[31] *92:7 9.8114 
2 *92:7 *92:9 131.268 
3 *92:9 *92:15 7.69577 
4 *92:15 *92:17 82.6103 
5 *92:17 io_oeb[31] 5.45137 
*END

*D_NET *93 0.0769758
*CONN
*P io_oeb[32] O
*I *646:io_io_oeb[32] O *D CaravelTopLevel
*CAP
1 io_oeb[32] 0.000852161
2 *646:io_io_oeb[32] 0.00353652
3 *93:17 0.0150001
4 *93:15 0.0176844
5 *93:15 io_oeb[34] 0
6 *93:17 *131:17 0.00360903
7 *56:9 *93:17 0.0155989
8 *57:9 *93:15 0.000716979
9 *92:17 *93:17 0.0199777
*RES
1 *646:io_io_oeb[32] *93:15 35.7023 
2 *93:15 *93:17 80.7993 
3 *93:17 io_oeb[32] 5.5955 
*END

*D_NET *94 0.0762765
*CONN
*P io_oeb[33] O
*I *646:io_io_oeb[33] O *D CaravelTopLevel
*CAP
1 io_oeb[33] 0.0010678
2 *646:io_io_oeb[33] 0.00223457
3 *94:9 0.00988001
4 *94:7 0.0110468
5 *94:9 io_oeb[34] 0.0102435
6 *94:9 *130:9 0.00171846
7 *94:9 *131:17 0.00927064
8 *94:9 *132:9 0
9 *54:9 *94:9 0
10 *56:9 *94:9 0.00553038
11 *57:9 *94:9 0.020018
12 *92:9 *94:9 0.00526625
13 *92:15 io_oeb[33] 0
*RES
1 *646:io_io_oeb[33] *94:7 9.9195 
2 *94:7 *94:9 62.2625 
3 *94:9 io_oeb[33] 6.17203 
*END

*D_NET *95 0.0484271
*CONN
*P io_oeb[34] O
*I *646:io_io_oeb[34] O *D CaravelTopLevel
*CAP
1 io_oeb[34] 0.00667875
2 *646:io_io_oeb[34] 0.00222012
3 *95:7 0.00889886
4 io_oeb[34] io_out[35] 0.00470801
5 *95:7 io_oeb[35] 0.00010794
6 *646:io_io_in[35] io_oeb[34] 0.00969697
7 *56:9 io_oeb[34] 0.00413806
8 *57:9 io_oeb[34] 0.00173491
9 *93:15 io_oeb[34] 0
10 *94:9 io_oeb[34] 0.0102435
*RES
1 *646:io_io_oeb[34] *95:7 10.0636 
2 *95:7 io_oeb[34] 46.6641 
*END

*D_NET *96 0.0216871
*CONN
*P io_oeb[35] O
*I *646:io_io_oeb[35] O *D CaravelTopLevel
*CAP
1 io_oeb[35] 0.00774837
2 *646:io_io_oeb[35] 0.00774837
3 io_oeb[35] io_out[35] 0.00608241
4 *95:7 io_oeb[35] 0.00010794
*RES
1 *646:io_io_oeb[35] io_oeb[35] 35.1015 
*END

*D_NET *97 0.0111084
*CONN
*P io_oeb[36] O
*I *646:io_io_oeb[36] O *D CaravelTopLevel
*CAP
1 io_oeb[36] 0.00555422
2 *646:io_io_oeb[36] 0.00555422
3 io_oeb[36] io_out[36] 0
*RES
1 *646:io_io_oeb[36] io_oeb[36] 23.5959 
*END

*D_NET *98 0.00972055
*CONN
*P io_oeb[37] O
*I *646:io_io_oeb[37] O *D CaravelTopLevel
*CAP
1 io_oeb[37] 0.00486027
2 *646:io_io_oeb[37] 0.00486027
*RES
1 *646:io_io_oeb[37] io_oeb[37] 20.0803 
*END

*D_NET *99 0.0401493
*CONN
*P io_oeb[3] O
*I *646:io_io_oeb[3] O *D CaravelTopLevel
*CAP
1 io_oeb[3] 0.00239654
2 *646:io_io_oeb[3] 0.000736018
3 *99:11 0.0142786
4 *99:7 0.012618
5 *99:11 io_out[2] 0.00170273
6 *99:11 *137:9 0
7 *99:11 *139:9 0
8 io_oeb[2] *99:11 0.00676733
9 *64:9 *99:11 0.00165005
*RES
1 *646:io_io_oeb[3] *99:7 5.73963 
2 *99:7 *99:11 48.6271 
3 *99:11 io_oeb[3] 6.79777 
*END

*D_NET *100 0.059264
*CONN
*P io_oeb[4] O
*I *646:io_io_oeb[4] O *D CaravelTopLevel
*CAP
1 io_oeb[4] 0.000812109
2 *646:io_io_oeb[4] 0.00239004
3 *100:9 0.0123919
4 *100:7 0.0139698
5 *61:11 *100:9 0.00304102
6 *62:9 *100:9 0.00150494
7 *63:9 *100:9 0.0251542
*RES
1 *646:io_io_oeb[4] *100:7 10.2078 
2 *100:7 *100:9 58.5338 
3 *100:9 io_oeb[4] 5.73963 
*END

*D_NET *101 0.0686329
*CONN
*P io_oeb[5] O
*I *646:io_io_oeb[5] O *D CaravelTopLevel
*CAP
1 io_oeb[5] 0.00103247
2 *646:io_io_oeb[5] 0.00209014
3 *101:9 0.0161035
4 *101:7 0.0171612
5 io_oeb[5] *105:7 9.2263e-05
6 *101:7 io_out[3] 0
7 *101:9 *140:9 0
8 *101:9 *141:9 0.02008
9 *62:9 *101:9 0.00945383
10 *63:9 *101:9 0.00261955
*RES
1 *646:io_io_oeb[5] *101:7 9.77537 
2 *101:7 *101:9 71.8505 
3 *101:9 io_oeb[5] 6.17203 
*END

*D_NET *102 0.0835559
*CONN
*P io_oeb[6] O
*I *646:io_io_oeb[6] O *D CaravelTopLevel
*CAP
1 io_oeb[6] 0.000940924
2 *646:io_io_oeb[6] 0.00223503
3 *102:9 0.0164507
4 *102:7 0.0177448
5 *102:9 *103:9 0.0312438
6 *102:9 *141:9 0.00896251
7 *62:9 *102:9 0.000197779
8 *63:9 *102:9 0.00226064
9 *69:9 *102:9 0.00351973
*RES
1 *646:io_io_oeb[6] *102:7 10.0276 
2 *102:7 *102:9 485.232 
3 *102:9 io_oeb[6] 5.9198 
*END

*D_NET *103 0.113043
*CONN
*P io_oeb[7] O
*I *646:io_io_oeb[7] O *D CaravelTopLevel
*CAP
1 io_oeb[7] 0.000985578
2 *646:io_io_oeb[7] 0.00233531
3 *103:9 0.0204255
4 *103:7 0.0217752
5 *103:9 *105:9 0.00492503
6 *103:9 *109:9 0.00154395
7 *103:9 *141:9 0.0178543
8 *69:9 *103:9 0.00297542
9 *71:9 *103:9 0.00897896
10 *102:9 *103:9 0.0312438
*RES
1 *646:io_io_oeb[7] *103:7 9.95553 
2 *103:7 *103:9 620.018 
3 *103:9 io_oeb[7] 5.99187 
*END

*D_NET *104 0.130706
*CONN
*P io_oeb[8] O
*I *646:io_io_oeb[8] O *D CaravelTopLevel
*CAP
1 io_oeb[8] 0.00222902
2 *646:io_io_oeb[8] 0.00125095
3 *104:9 0.0247507
4 *104:7 0.0237726
5 *104:9 *139:9 0.00373451
6 *31:9 *104:9 0
7 *65:9 *104:9 0.0117382
8 *66:9 *104:9 0.0254019
9 *70:9 *104:9 0.0378282
*RES
1 *646:io_io_oeb[8] *104:7 6.8927 
2 *104:7 *104:9 132.574 
3 *104:9 io_oeb[8] 9.0547 
*END

*D_NET *105 0.213547
*CONN
*P io_oeb[9] O
*I *646:io_io_oeb[9] O *D CaravelTopLevel
*CAP
1 io_oeb[9] 0.000879261
2 *646:io_io_oeb[9] 0.00229287
3 *105:9 0.0194032
4 *105:7 0.0208168
5 *105:9 *107:9 0
6 *105:9 *109:9 0.0111839
7 *105:9 *111:9 0.0349404
8 *105:9 *141:9 0.0299672
9 *105:9 *143:9 0.0698778
10 io_oeb[5] *105:7 9.2263e-05
11 *69:9 *105:9 0.0159349
12 *71:9 *105:9 0.00323316
13 *103:9 *105:9 0.00492503
*RES
1 *646:io_io_oeb[9] *105:7 10.0636 
2 *105:7 *105:9 156.331 
3 *105:9 io_oeb[9] 5.88377 
*END

*D_NET *106 0.00666047
*CONN
*P io_out[0] O
*I *646:io_io_out[0] O *D CaravelTopLevel
*CAP
1 io_out[0] 0.00333023
2 *646:io_io_out[0] 0.00333023
*RES
1 *646:io_io_out[0] io_out[0] 10.3964 
*END

*D_NET *107 0.16185
*CONN
*P io_out[10] O
*I *646:io_io_out[10] O *D CaravelTopLevel
*CAP
1 io_out[10] 0.00133989
2 *646:io_io_out[10] 0.00190865
3 *107:9 0.0375735
4 *107:7 0.0381423
5 *107:9 *111:9 0
6 *107:9 *140:9 0.00441252
7 *107:9 *141:9 0
8 *32:9 *107:9 0.0784732
9 *105:9 *107:9 0
*RES
1 *646:io_io_out[10] *107:7 8.91057 
2 *107:7 *107:9 175.614 
3 *107:9 io_out[10] 7.03683 
*END

*D_NET *108 0.200306
*CONN
*P io_out[11] O
*I *646:io_io_out[11] O *D CaravelTopLevel
*CAP
1 io_out[11] 0.00234453
2 *646:io_io_out[11] 0.000836346
3 *108:9 0.0355967
4 *108:7 0.0340885
5 *108:9 *142:9 0.0356796
6 *646:io_io_in[10] *108:7 0
7 *33:9 *108:9 0.0898044
8 *34:9 *108:9 0
9 *66:17 *108:9 0.00195641
*RES
1 *646:io_io_out[11] *108:7 5.88377 
2 *108:7 *108:9 199.264 
3 *108:9 io_out[11] 10.0636 
*END

*D_NET *109 0.246712
*CONN
*P io_out[12] O
*I *646:io_io_out[12] O *D CaravelTopLevel
*CAP
1 io_out[12] 0.000825146
2 *646:io_io_out[12] 0.00240593
3 *109:9 0.0242182
4 *109:7 0.025799
5 *109:9 *111:9 0.00997608
6 *35:15 io_out[12] 2.61244e-05
7 *69:9 *109:9 0.0698095
8 *71:9 *109:9 0.100925
9 *103:9 *109:9 0.00154395
10 *105:9 *109:9 0.0111839
*RES
1 *646:io_io_out[12] *109:7 10.0997 
2 *109:7 *109:9 1270.88 
3 *109:9 io_out[12] 5.84773 
*END

*D_NET *110 0.212027
*CONN
*P io_out[13] O
*I *646:io_io_out[13] O *D CaravelTopLevel
*CAP
1 io_out[13] 0.00250055
2 *646:io_io_out[13] 0.00066771
3 *110:9 0.0586715
4 *110:7 0.0568387
5 *33:9 *110:9 0.0933482
6 *34:9 *110:9 0
*RES
1 *646:io_io_out[13] *110:7 5.5955 
2 *110:7 *110:9 246.778 
3 *110:9 io_out[13] 10.3519 
*END

*D_NET *111 0.291201
*CONN
*P io_out[14] O
*I *646:io_io_out[14] O *D CaravelTopLevel
*CAP
1 io_out[14] 0.000907893
2 *646:io_io_out[14] 0.00247923
3 *111:9 0.0713269
4 *111:7 0.0728983
5 *32:9 *111:9 0
6 *35:9 *111:9 0.0186452
7 *69:9 *111:9 0.00203823
8 *71:9 *111:9 0.0234393
9 *73:9 *111:9 0.0545491
10 *105:9 *111:9 0.0349404
11 *107:9 *111:9 0
12 *109:9 *111:9 0.00997608
*RES
1 *646:io_io_out[14] *111:7 9.9195 
2 *111:7 *111:9 270.429 
3 *111:9 io_out[14] 6.0279 
*END

*D_NET *112 0.152818
*CONN
*P io_out[15] O
*I *646:io_io_out[15] O *D CaravelTopLevel
*CAP
1 io_out[15] 0.00168162
2 *646:io_io_out[15] 7.61682e-05
3 *112:9 0.0763328
4 *112:7 0.0747274
*RES
1 *646:io_io_out[15] *112:7 1.60714 
2 *112:7 *112:9 1538.62 
3 *112:9 io_out[15] 26.3077 
*END

*D_NET *113 0.151197
*CONN
*P io_out[16] O
*I *646:io_io_out[16] O *D CaravelTopLevel
*CAP
1 io_out[16] 0.00444681
2 *646:io_io_out[16] 7.61682e-05
3 *113:11 0.00449312
4 *113:9 0.0710756
5 *113:7 0.0711054
*RES
1 *646:io_io_out[16] *113:7 1.60714 
2 *113:7 *113:9 1464.12 
3 *113:9 *113:11 0.946429 
4 *113:11 io_out[16] 91.5625 
*END

*D_NET *114 0.152441
*CONN
*P io_out[17] O
*I *646:io_io_out[17] O *D CaravelTopLevel
*CAP
1 io_out[17] 0.00110794
2 *646:io_io_out[17] 0.000928891
3 *114:15 0.0752918
4 *114:13 0.0751127
*RES
1 *646:io_io_out[17] *114:13 20.6961 
2 *114:13 *114:15 1528.91 
3 *114:15 io_out[17] 24.7222 
*END

*D_NET *115 0.15399
*CONN
*P io_out[18] O
*I *646:io_io_out[18] O *D CaravelTopLevel
*CAP
1 io_out[18] 0.00113829
2 *646:io_io_out[18] 0.00167274
3 *115:17 0.0753221
4 *115:15 0.0758566
*RES
1 *646:io_io_out[18] *115:15 23.3217 
2 *115:15 *115:17 1528.91 
3 *115:17 io_out[18] 24.7222 
*END

*D_NET *116 0.155196
*CONN
*P io_out[19] O
*I *646:io_io_out[19] O *D CaravelTopLevel
*CAP
1 io_out[19] 0.0751562
2 *646:io_io_out[19] 0.00244199
3 *116:15 0.0775982
*RES
1 *646:io_io_out[19] *116:15 23.3128 
2 *116:15 io_out[19] 1548.88 
*END

*D_NET *117 0.0160992
*CONN
*P io_out[1] O
*I *646:io_io_out[1] O *D CaravelTopLevel
*CAP
1 io_out[1] 0.00804962
2 *646:io_io_out[1] 0.00804962
3 *646:io_io_in[2] io_out[1] 0
*RES
1 *646:io_io_out[1] io_out[1] 30.0568 
*END

*D_NET *118 0.156978
*CONN
*P io_out[20] O
*I *646:io_io_out[20] O *D CaravelTopLevel
*CAP
1 io_out[20] 0.0011294
2 *646:io_io_out[20] 0.00302743
3 *118:15 0.0754618
4 *118:13 0.0773598
*RES
1 *646:io_io_out[20] *118:13 24.1464 
2 *118:13 *118:15 1531.95 
3 *118:15 io_out[20] 24.7943 
*END

*D_NET *119 0.158223
*CONN
*P io_out[21] O
*I *646:io_io_out[21] O *D CaravelTopLevel
*CAP
1 io_out[21] 0.0011294
2 *646:io_io_out[21] 0.00364982
3 *119:17 0.0754618
4 *119:15 0.0779822
*RES
1 *646:io_io_out[21] *119:15 26.772 
2 *119:15 *119:17 1531.95 
3 *119:17 io_out[21] 24.7943 
*END

*D_NET *120 0.159675
*CONN
*P io_out[22] O
*I *646:io_io_out[22] O *D CaravelTopLevel
*CAP
1 io_out[22] 0.00120652
2 *646:io_io_out[22] 0.00431153
3 *120:17 0.0755092
4 *120:15 0.0786142
5 *44:5 *120:15 3.40128e-05
*RES
1 *646:io_io_out[22] *120:15 29.5412 
2 *120:15 *120:17 1531.34 
3 *120:17 io_out[22] 24.8664 
*END

*D_NET *121 0.161025
*CONN
*P io_out[23] O
*I *646:io_io_out[23] O *D CaravelTopLevel
*CAP
1 io_out[23] 0.00565818
2 *646:io_io_out[23] 7.61682e-05
3 *121:9 0.0804363
4 *121:7 0.0748543
*RES
1 *646:io_io_out[23] *121:7 1.60714 
2 *121:7 *121:9 1541.05 
3 *121:9 io_out[23] 36.6349 
*END

*D_NET *122 0.239323
*CONN
*P io_out[24] O
*I *646:io_io_out[24] O *D CaravelTopLevel
*CAP
1 io_out[24] 0.000837519
2 *646:io_io_out[24] 0.00239644
3 *122:17 0.0312809
4 *122:15 0.0307222
5 *122:9 0.0216549
6 *122:7 0.0237725
7 *122:9 *123:9 0.0265658
8 *122:17 *123:17 0.0584004
9 *122:17 *125:17 0.0192861
10 *46:11 *122:17 0.0137413
11 *46:13 *122:9 0.0106645
12 *46:13 *122:17 0
*RES
1 *646:io_io_out[24] *122:7 9.66727 
2 *122:7 *122:9 561.125 
3 *122:9 *122:15 7.55163 
4 *122:15 *122:17 162.723 
5 *122:17 io_out[24] 5.73963 
*END

*D_NET *123 0.258173
*CONN
*P io_out[25] O
*I *646:io_io_out[25] O *D CaravelTopLevel
*CAP
1 io_out[25] 0.000830566
2 *646:io_io_out[25] 0.00249192
3 *123:17 0.0215055
4 *123:15 0.0209865
5 *123:9 0.0120307
6 *123:7 0.014211
7 *123:9 *124:9 0.00253573
8 *123:9 *125:9 0.0120019
9 *123:9 *129:17 0.00135473
10 *123:15 io_out[29] 1.40863e-05
11 *123:17 *124:17 0.0585375
12 *123:17 *125:17 0.000192248
13 *123:17 *126:17 0.0194187
14 *46:13 *123:9 0.00709591
15 *122:9 *123:9 0.0265658
16 *122:17 *123:17 0.0584004
*RES
1 *646:io_io_out[25] *123:7 9.73933 
2 *123:7 *123:9 434.839 
3 *123:9 *123:15 7.6237 
4 *123:15 *123:17 163.256 
5 *123:17 io_out[25] 5.5955 
*END

*D_NET *124 0.209874
*CONN
*P io_out[26] O
*I *646:io_io_out[26] O *D CaravelTopLevel
*CAP
1 io_out[26] 0.000751668
2 *646:io_io_out[26] 0.00241701
3 *124:17 0.0384049
4 *124:15 0.0379358
5 *124:9 0.00864224
6 *124:7 0.0107767
7 *124:9 *125:9 0.020905
8 *124:9 *126:9 0.00584832
9 *124:9 *129:17 0.0020277
10 *124:9 *130:17 0.00138139
11 *124:15 io_out[30] 0.000194336
12 *124:17 *126:17 3.5657e-05
13 *124:17 *127:17 0.0194804
14 *123:9 *124:9 0.00253573
15 *123:17 *124:17 0.0585375
*RES
1 *646:io_io_out[26] *124:7 9.88347 
2 *124:7 *124:9 311.589 
3 *124:9 *124:15 7.6237 
4 *124:15 *124:17 163.15 
5 *124:17 io_out[26] 5.45137 
*END

*D_NET *125 0.190489
*CONN
*P io_out[27] O
*I *646:io_io_out[27] O *D CaravelTopLevel
*CAP
1 io_out[27] 0.000988776
2 *646:io_io_out[27] 0.00234873
3 *125:17 0.024111
4 *125:15 0.0233164
5 *125:9 0.00698137
6 *125:7 0.00913584
7 *125:9 *126:9 0.00500958
8 *125:9 *127:9 0.00575148
9 *125:9 *129:17 0.00585488
10 *125:17 *126:17 0.0436536
11 *125:17 *129:17 0.00459398
12 *46:13 *125:17 0.00635839
13 *47:9 *125:17 0
14 *122:17 *125:17 0.0192861
15 *123:9 *125:9 0.0120019
16 *123:17 *125:17 0.000192248
17 *124:9 *125:9 0.020905
*RES
1 *646:io_io_out[27] *125:7 9.8114 
2 *125:7 *125:9 365.625 
3 *125:9 *125:15 7.26337 
4 *125:15 *125:17 132.042 
5 *125:17 io_out[27] 5.88377 
*END

*D_NET *126 0.194862
*CONN
*P io_out[28] O
*I *646:io_io_out[28] O *D CaravelTopLevel
*CAP
1 io_out[28] 0.000888284
2 *646:io_io_out[28] 0.00239415
3 *126:17 0.0129879
4 *126:15 0.0123179
5 *126:9 0.01032
6 *126:7 0.0124958
7 *126:9 *127:9 0
8 *126:9 *129:9 0.00293063
9 *126:9 *129:17 0.00914802
10 *126:9 *130:17 0.00113826
11 *126:9 *131:17 0.00126985
12 *126:17 *127:17 0.0396631
13 *126:17 *129:17 0.000157551
14 *91:17 *126:17 0.0151849
15 *123:17 *126:17 0.0194187
16 *124:9 *126:9 0.00584832
17 *124:17 *126:17 3.5657e-05
18 *125:9 *126:9 0.00500958
19 *125:17 *126:17 0.0436536
*RES
1 *646:io_io_out[28] *126:7 9.95553 
2 *126:7 *126:9 290.339 
3 *126:9 *126:15 7.26337 
4 *126:15 *126:17 123.519 
5 *126:17 io_out[28] 5.73963 
*END

*D_NET *127 0.146103
*CONN
*P io_out[29] O
*I *646:io_io_out[29] O *D CaravelTopLevel
*CAP
1 io_out[29] 0.000847791
2 *646:io_io_out[29] 0.0022024
3 *127:17 0.0158598
4 *127:15 0.0154058
5 *127:9 0.0121676
6 *127:7 0.0139763
7 *127:9 *129:9 0.0026279
8 *127:9 *130:17 0.00593516
9 *91:9 *127:9 0.00946319
10 *91:17 *127:17 0.00247877
11 *92:17 *127:17 0.000229636
12 *123:15 io_out[29] 1.40863e-05
13 *124:17 *127:17 0.0194804
14 *125:9 *127:9 0.00575148
15 *126:9 *127:9 0
16 *126:17 *127:17 0.0396631
*RES
1 *646:io_io_out[29] *127:7 9.66727 
2 *127:7 *127:9 344.375 
3 *127:9 *127:15 7.69577 
4 *127:15 *127:17 92.4114 
5 *127:17 io_out[29] 5.5955 
*END

*D_NET *128 0.0274147
*CONN
*P io_out[2] O
*I *646:io_io_out[2] O *D CaravelTopLevel
*CAP
1 io_out[2] 0.00905165
2 *646:io_io_out[2] 0.00905165
3 io_out[2] *137:9 0
4 io_oeb[1] io_out[2] 0.00322627
5 io_oeb[2] io_out[2] 0.00438242
6 *99:11 io_out[2] 0.00170273
*RES
1 *646:io_io_out[2] io_out[2] 43.3735 
*END

*D_NET *129 0.15606
*CONN
*P io_out[30] O
*I *646:io_io_out[30] O *D CaravelTopLevel
*CAP
1 io_out[30] 0.000940674
2 *646:io_io_out[30] 0.00235514
3 *129:17 0.0134211
4 *129:15 0.0126244
5 *129:9 0.00790075
6 *129:7 0.0101119
7 *129:9 *130:17 0.00587204
8 *129:9 *131:17 0.00194318
9 *129:15 io_out[32] 2.82126e-05
10 *129:17 *130:17 0.019429
11 *47:9 *129:17 0
12 *49:9 *129:17 0
13 *54:9 *129:17 0
14 *91:9 *129:9 0.0183776
15 *91:17 *129:17 0.0341659
16 *123:9 *129:17 0.00135473
17 *124:9 *129:17 0.0020277
18 *124:15 io_out[30] 0.000194336
19 *125:9 *129:17 0.00585488
20 *125:17 *129:17 0.00459398
21 *126:9 *129:9 0.00293063
22 *126:9 *129:17 0.00914802
23 *126:17 *129:17 0.000157551
24 *127:9 *129:9 0.0026279
*RES
1 *646:io_io_out[30] *129:7 9.8114 
2 *129:7 *129:9 282.446 
3 *129:9 *129:15 7.11923 
4 *129:15 *129:17 81.6515 
5 *129:17 io_out[30] 6.0279 
*END

*D_NET *130 0.119339
*CONN
*P io_out[31] O
*I *646:io_io_out[31] O *D CaravelTopLevel
*CAP
1 io_out[31] 0.0011111
2 *646:io_io_out[31] 0.00226537
3 *130:17 0.0161059
4 *130:15 0.0151317
5 *130:9 0.00686217
6 *130:7 0.00899061
7 *130:9 *131:17 0.00141457
8 *130:17 *131:17 0.0149065
9 *54:9 *130:17 0
10 *91:9 *130:9 0.0115425
11 *91:9 *130:17 0.00216665
12 *91:17 *130:17 1.47871e-05
13 *92:9 *130:9 0.00335326
14 *94:9 *130:9 0.00171846
15 *124:9 *130:17 0.00138139
16 *126:9 *130:17 0.00113826
17 *127:9 *130:17 0.00593516
18 *129:9 *130:17 0.00587204
19 *129:17 *130:17 0.019429
*RES
1 *646:io_io_out[31] *130:7 9.66727 
2 *130:7 *130:9 214.446 
3 *130:9 *130:15 7.11923 
4 *130:15 *130:17 71.8505 
5 *130:17 io_out[31] 6.17203 
*END

*D_NET *131 0.0970179
*CONN
*P io_out[32] O
*I *646:io_io_out[32] O *D CaravelTopLevel
*CAP
1 io_out[32] 0.000967844
2 *646:io_io_out[32] 0.00215166
3 *131:17 0.0106617
4 *131:15 0.00988758
5 *131:9 0.00462356
6 *131:7 0.00658151
7 *54:9 *131:17 0
8 *56:9 *131:17 0.0190503
9 *57:7 *131:15 0
10 *57:9 *131:9 0.00332194
11 *91:9 *131:17 0.00129855
12 *91:17 *131:17 0.00483405
13 *92:9 *131:9 0.00118691
14 *92:17 *131:17 1.03035e-05
15 *93:17 *131:17 0.00360903
16 *94:9 *131:17 0.00927064
17 *126:9 *131:17 0.00126985
18 *129:9 *131:17 0.00194318
19 *129:15 io_out[32] 2.82126e-05
20 *130:9 *131:17 0.00141457
21 *130:17 *131:17 0.0149065
*RES
1 *646:io_io_out[32] *131:7 9.66727 
2 *131:7 *131:9 99.0893 
3 *131:9 *131:15 7.26337 
4 *131:15 *131:17 70.4655 
5 *131:17 io_out[32] 6.0279 
*END

*D_NET *132 0.0551826
*CONN
*P io_out[33] O
*I *646:io_io_out[33] O *D CaravelTopLevel
*CAP
1 io_out[33] 0.00143787
2 *646:io_io_out[33] 0.00195163
3 *132:9 0.0202351
4 *132:7 0.0207489
5 *53:13 *132:9 0.000567781
6 *54:9 *132:9 0.0102412
7 *57:9 *132:9 0
8 *94:9 *132:9 0
*RES
1 *646:io_io_out[33] *132:7 9.0547 
2 *132:7 *132:9 66.0977 
3 *132:9 io_out[33] 7.03683 
*END

*D_NET *133 0.0344289
*CONN
*P io_out[34] O
*I *646:io_io_out[34] O *D CaravelTopLevel
*CAP
1 io_out[34] 0.00211709
2 *646:io_io_out[34] 0.00115551
3 *133:11 0.0160384
4 *133:7 0.0150768
5 *646:io_io_in[32] io_out[34] 4.10248e-05
*RES
1 *646:io_io_out[34] *133:7 6.8927 
2 *133:7 *133:11 47.8814 
3 *133:11 io_out[34] 5.78883 
*END

*D_NET *134 0.0273848
*CONN
*P io_out[35] O
*I *646:io_io_out[35] O *D CaravelTopLevel
*CAP
1 io_out[35] 0.0074673
2 *646:io_io_out[35] 0.0074673
3 io_oeb[34] io_out[35] 0.00470801
4 io_oeb[35] io_out[35] 0.00608241
5 *646:io_io_in[35] io_out[35] 0.00165975
*RES
1 *646:io_io_out[35] io_out[35] 38.8301 
*END

*D_NET *135 0.0136197
*CONN
*P io_out[36] O
*I *646:io_io_out[36] O *D CaravelTopLevel
*CAP
1 io_out[36] 0.00680986
2 *646:io_io_out[36] 0.00680986
3 io_oeb[36] io_out[36] 0
*RES
1 *646:io_io_out[36] io_out[36] 27.4311 
*END

*D_NET *136 0.0063599
*CONN
*P io_out[37] O
*I *646:io_io_out[37] O *D CaravelTopLevel
*CAP
1 io_out[37] 0.00317995
2 *646:io_io_out[37] 0.00317995
*RES
1 *646:io_io_out[37] io_out[37] 9.4846 
*END

*D_NET *137 0.0347282
*CONN
*P io_out[3] O
*I *646:io_io_out[3] O *D CaravelTopLevel
*CAP
1 io_out[3] 0.00211363
2 *646:io_io_out[3] 0.0118066
3 *137:9 0.0139202
4 *137:9 *138:9 0.00454085
5 *137:9 *139:9 0.00234686
6 io_out[2] *137:9 0
7 *99:11 *137:9 0
8 *101:7 io_out[3] 0
*RES
1 *646:io_io_out[3] *137:9 47.3472 
2 *137:9 io_out[3] 9.34297 
*END

*D_NET *138 0.0516986
*CONN
*P io_out[4] O
*I *646:io_io_out[4] O *D CaravelTopLevel
*CAP
1 io_out[4] 0.00178153
2 *646:io_io_out[4] 0.00113013
3 *138:9 0.0134444
4 *138:7 0.012793
5 io_out[4] *141:7 0.00069512
6 *138:9 *139:9 0.0173136
7 *137:9 *138:9 0.00454085
*RES
1 *646:io_io_out[4] *138:7 6.8927 
2 *138:7 *138:9 54.0594 
3 *138:9 io_out[4] 9.0547 
*END

*D_NET *139 0.069769
*CONN
*P io_out[5] O
*I *646:io_io_out[5] O *D CaravelTopLevel
*CAP
1 io_out[5] 0.00219165
2 *646:io_io_out[5] 0.00113949
3 *139:9 0.0146453
4 *139:7 0.0135931
5 *646:io_io_in[7] *139:9 0.000450998
6 *64:9 *139:9 0
7 *65:9 *139:9 0.0143536
8 *99:11 *139:9 0
9 *104:9 *139:9 0.00373451
10 *137:9 *139:9 0.00234686
11 *138:9 *139:9 0.0173136
*RES
1 *646:io_io_out[5] *139:7 6.74857 
2 *139:7 *139:9 67.3761 
3 *139:9 io_out[5] 9.19883 
*END

*D_NET *140 0.0657299
*CONN
*P io_out[6] O
*I *646:io_io_out[6] O *D CaravelTopLevel
*CAP
1 io_out[6] 0.00146048
2 *646:io_io_out[6] 0.00178966
3 *140:9 0.028869
4 *140:7 0.0291982
5 *140:9 *141:9 0
6 *101:9 *140:9 0
7 *107:9 *140:9 0.00441252
*RES
1 *646:io_io_out[6] *140:7 8.76643 
2 *140:7 *140:9 80.6927 
3 *140:9 io_out[6] 7.18097 
*END

*D_NET *141 0.134115
*CONN
*P io_out[7] O
*I *646:io_io_out[7] O *D CaravelTopLevel
*CAP
1 io_out[7] 0.00101405
2 *646:io_io_out[7] 0.00195308
3 *141:9 0.0195068
4 *141:7 0.0204458
5 *141:9 *143:9 0.00151124
6 io_out[4] *141:7 0.00069512
7 *63:9 *141:9 0.0100681
8 *67:9 *141:9 0.00103098
9 *71:9 *141:9 0.00102606
10 *101:9 *141:9 0.02008
11 *102:9 *141:9 0.00896251
12 *103:9 *141:9 0.0178543
13 *105:9 *141:9 0.0299672
14 *107:9 *141:9 0
15 *140:9 *141:9 0
*RES
1 *646:io_io_out[7] *141:7 9.9195 
2 *141:7 *141:9 104.45 
3 *141:9 io_out[7] 6.0279 
*END

*D_NET *142 0.110044
*CONN
*P io_out[8] O
*I *646:io_io_out[8] O *D CaravelTopLevel
*CAP
1 io_out[8] 0.00248735
2 *646:io_io_out[8] 0.000905921
3 *142:9 0.0272269
4 *142:7 0.0256454
5 *646:io_io_in[10] *142:9 0.00598268
6 *34:9 *142:9 0.00254655
7 *64:9 *142:9 0.00526913
8 *65:9 *142:9 0.00427257
9 *66:17 *142:9 2.77952e-05
10 *70:9 *142:9 0
11 *108:9 *142:9 0.0356796
*RES
1 *646:io_io_out[8] *142:7 6.0279 
2 *142:7 *142:9 128.1 
3 *142:9 io_out[8] 9.9195 
*END

*D_NET *143 0.177773
*CONN
*P io_out[9] O
*I *646:io_io_out[9] O *D CaravelTopLevel
*CAP
1 io_out[9] 0.000815284
2 *646:io_io_out[9] 0.0023666
3 *143:9 0.0169322
4 *143:7 0.0184835
5 *67:9 *143:9 0.0677867
6 *105:9 *143:9 0.0698778
7 *141:9 *143:9 0.00151124
*RES
1 *646:io_io_out[9] *143:7 10.2078 
2 *143:7 *143:9 151.857 
3 *143:9 io_out[9] 5.73963 
*END

*D_NET *144 0.0126086
*CONN
*P la_data_in[0] I
*I *646:io_la_data_in[0] I *D CaravelTopLevel
*CAP
1 la_data_in[0] 0.00260672
2 *646:io_la_data_in[0] 0.00260672
3 *646:io_la_data_in[0] la_data_out[0] 0
4 *646:io_la_data_in[0] la_data_out[3] 0
5 *646:io_la_data_in[0] wbs_dat_o[28] 8.67306e-05
6 *646:io_la_data_in[0] wbs_dat_o[29] 0.000543675
7 *646:io_la_data_in[0] *646:io_la_data_in[1] 0.00140994
8 *646:io_la_data_in[0] *646:io_la_data_in[2] 0.000728487
9 *646:io_la_data_in[0] *646:io_wbs_adr_i[29] 0
10 *646:io_la_data_in[0] *646:io_wbs_dat_i[30] 0.00270575
11 *646:io_la_data_in[0] *205:7 0
12 *646:io_la_data_in[0] *311:9 0.00114963
13 *646:io_la_data_in[0] *400:9 0.000585835
14 *646:io_la_data_in[0] *600:11 0.000185098
*RES
1 la_data_in[0] *646:io_la_data_in[0] 27.326 
*END

*D_NET *145 0.0106238
*CONN
*P la_data_in[100] I
*I *646:io_la_data_in[100] I *D CaravelTopLevel
*CAP
1 la_data_in[100] 0.00345317
2 *646:io_la_data_in[100] 0.00345317
3 *646:io_la_data_in[100] la_data_out[100] 0
4 *646:io_la_data_in[100] la_data_out[103] 0.000587034
5 *646:io_la_data_in[100] la_data_out[96] 0
6 *646:io_la_data_in[100] la_data_out[99] 0.000190086
7 *646:io_la_data_in[100] *646:io_la_data_in[103] 0.000326674
8 *646:io_la_data_in[100] *646:io_la_data_in[98] 0.00144373
9 *646:io_la_data_in[100] *646:io_la_data_in[99] 0.000627294
10 *646:io_la_data_in[100] *646:io_la_oenb[103] 0
11 *646:io_la_data_in[100] *646:io_la_oenb[96] 0.000293184
12 *646:io_la_data_in[100] *273:11 0.000249455
*RES
1 la_data_in[100] *646:io_la_data_in[100] 30.2102 
*END

*D_NET *146 0.0154552
*CONN
*P la_data_in[101] I
*I *646:io_la_data_in[101] I *D CaravelTopLevel
*CAP
1 la_data_in[101] 0.00233353
2 *646:io_la_data_in[101] 0.00233353
3 *646:io_la_data_in[101] la_data_out[101] 0.00576388
4 *646:io_la_data_in[101] la_data_out[99] 0.00335519
5 *646:io_la_data_in[101] *646:io_la_data_in[103] 0.000557918
6 *646:io_la_data_in[101] *646:io_la_data_in[104] 0.000813826
7 *646:io_la_data_in[101] *401:9 0.000154304
8 *646:io_la_data_in[101] *404:15 0.000143002
*RES
1 la_data_in[101] *646:io_la_data_in[101] 31.3199 
*END

*D_NET *147 0.00947796
*CONN
*P la_data_in[102] I
*I *646:io_la_data_in[102] I *D CaravelTopLevel
*CAP
1 la_data_in[102] 0.00473898
2 *646:io_la_data_in[102] 0.00473898
3 *646:io_la_data_in[102] *646:io_la_data_in[106] 0
4 *646:io_la_data_in[102] *646:io_la_oenb[105] 0
*RES
1 la_data_in[102] *646:io_la_data_in[102] 29.1977 
*END

*D_NET *148 0.0153679
*CONN
*P la_data_in[103] I
*I *646:io_la_data_in[103] I *D CaravelTopLevel
*CAP
1 la_data_in[103] 0.00187688
2 *646:io_la_data_in[103] 0.00187688
3 *646:io_la_data_in[103] la_data_out[103] 0.00585596
4 *646:io_la_data_in[103] la_data_out[99] 1.46617e-05
5 *646:io_la_data_in[103] *646:io_la_data_in[104] 0.00485888
6 *646:io_la_data_in[100] *646:io_la_data_in[103] 0.000326674
7 *646:io_la_data_in[101] *646:io_la_data_in[103] 0.000557918
*RES
1 la_data_in[103] *646:io_la_data_in[103] 30.7146 
*END

*D_NET *149 0.0153893
*CONN
*P la_data_in[104] I
*I *646:io_la_data_in[104] I *D CaravelTopLevel
*CAP
1 la_data_in[104] 0.00183675
2 *646:io_la_data_in[104] 0.00183675
3 *646:io_la_data_in[104] la_data_out[100] 8.3551e-05
4 *646:io_la_data_in[104] la_data_out[101] 0.000111846
5 *646:io_la_data_in[104] la_data_out[103] 0.000349165
6 *646:io_la_data_in[104] la_data_out[105] 0.000454447
7 *646:io_la_data_in[104] *646:io_la_data_in[105] 0.00492022
8 *646:io_la_data_in[104] *646:io_la_oenb[101] 3.01213e-06
9 *646:io_la_data_in[104] *401:9 0.000120855
10 *646:io_la_data_in[101] *646:io_la_data_in[104] 0.000813826
11 *646:io_la_data_in[103] *646:io_la_data_in[104] 0.00485888
*RES
1 la_data_in[104] *646:io_la_data_in[104] 30.2535 
*END

*D_NET *150 0.0160852
*CONN
*P la_data_in[105] I
*I *646:io_la_data_in[105] I *D CaravelTopLevel
*CAP
1 la_data_in[105] 0.00236581
2 *646:io_la_data_in[105] 0.00236581
3 *646:io_la_data_in[105] la_data_out[105] 0.000487183
4 *646:io_la_data_in[105] *646:io_la_data_in[106] 0.00510351
5 *646:io_la_data_in[105] *646:io_la_oenb[101] 0.00031235
6 *646:io_la_data_in[105] *275:11 0.0001082
7 *646:io_la_data_in[105] *403:11 0.000139624
8 *646:io_la_data_in[105] *404:11 0.000121926
9 *646:io_la_data_in[105] *404:15 0.000160617
10 *646:io_la_data_in[104] *646:io_la_data_in[105] 0.00492022
*RES
1 la_data_in[105] *646:io_la_data_in[105] 32.1655 
*END

*D_NET *151 0.0163037
*CONN
*P la_data_in[106] I
*I *646:io_la_data_in[106] I *D CaravelTopLevel
*CAP
1 la_data_in[106] 0.00241738
2 *646:io_la_data_in[106] 0.00241738
3 *646:io_la_data_in[106] la_data_out[105] 0.000106315
4 *646:io_la_data_in[106] la_data_out[106] 0.00602757
5 *646:io_la_data_in[106] *403:11 0.000120158
6 *646:io_la_data_in[106] *404:15 0.000111431
7 *646:io_la_data_in[102] *646:io_la_data_in[106] 0
8 *646:io_la_data_in[105] *646:io_la_data_in[106] 0.00510351
*RES
1 la_data_in[106] *646:io_la_data_in[106] 33.323 
*END

*D_NET *152 0.0154578
*CONN
*P la_data_in[107] I
*I *646:io_la_data_in[107] I *D CaravelTopLevel
*CAP
1 la_data_in[107] 0.000230083
2 *646:io_la_data_in[107] 0.000433765
3 *152:13 0.00154845
4 *152:11 0.00134476
5 *646:io_la_data_in[107] *646:io_la_oenb[106] 0
6 *152:11 *646:io_la_data_in[111] 8.40488e-05
7 *152:13 la_data_out[105] 0.00067099
8 *152:13 *154:11 0.00333236
9 *152:13 *405:15 0.00267196
10 *152:13 *406:13 0.0044205
11 *152:13 *409:13 0.000333038
12 *152:13 *412:11 0.000387885
*RES
1 la_data_in[107] *152:11 9.83929 
2 *152:11 *152:13 62.1429 
3 *152:13 *646:io_la_data_in[107] 13.2411 
*END

*D_NET *153 0.0128253
*CONN
*P la_data_in[108] I
*I *646:io_la_data_in[108] I *D CaravelTopLevel
*CAP
1 la_data_in[108] 0.00316077
2 *646:io_la_data_in[108] 0.00316077
3 *646:io_la_data_in[108] la_data_out[105] 0
4 *646:io_la_data_in[108] la_data_out[108] 0.00650226
5 *646:io_la_data_in[108] la_data_out[112] 1.48677e-06
6 *646:io_la_data_in[108] *646:io_la_data_in[110] 0
*RES
1 la_data_in[108] *646:io_la_data_in[108] 31.6515 
*END

*D_NET *154 0.0148142
*CONN
*P la_data_in[109] I
*I *646:io_la_data_in[109] I *D CaravelTopLevel
*CAP
1 la_data_in[109] 0.000386716
2 *646:io_la_data_in[109] 0.00047648
3 *154:11 0.00153198
4 *154:9 0.00144222
5 *154:9 *409:11 0
6 *154:11 la_data_out[105] 0.000111279
7 *154:11 *409:13 0.00615637
8 *154:11 *412:11 0.000940021
9 *154:11 *414:13 0.000436749
10 *152:13 *154:11 0.00333236
*RES
1 la_data_in[109] *154:9 10.8393 
2 *154:9 *154:11 62.1429 
3 *154:11 *646:io_la_data_in[109] 13.7589 
*END

*D_NET *155 0.00631418
*CONN
*P la_data_in[10] I
*I *646:io_la_data_in[10] I *D CaravelTopLevel
*CAP
1 la_data_in[10] 0.000645201
2 *646:io_la_data_in[10] 0.00175671
3 *155:7 0.00240191
4 *646:io_la_data_in[10] *646:io_la_oenb[7] 0.000113045
5 *646:io_la_data_in[10] *388:13 0.00139731
6 *155:7 la_data_out[7] 0
*RES
1 la_data_in[10] *155:7 16.5536 
2 *155:7 *646:io_la_data_in[10] 43.7768 
*END

*D_NET *156 0.0136724
*CONN
*P la_data_in[110] I
*I *646:io_la_data_in[110] I *D CaravelTopLevel
*CAP
1 la_data_in[110] 0.0034192
2 *646:io_la_data_in[110] 0.0034192
3 *646:io_la_data_in[110] la_data_out[110] 0.000544724
4 *646:io_la_data_in[110] la_data_out[111] 0.00139584
5 *646:io_la_data_in[110] la_data_out[112] 0.00181795
6 *646:io_la_data_in[110] *646:io_la_data_in[113] 0.00239693
7 *646:io_la_data_in[110] *646:io_la_oenb[114] 0
8 *646:io_la_data_in[110] *288:9 0.00067861
9 *646:io_la_data_in[108] *646:io_la_data_in[110] 0
*RES
1 la_data_in[110] *646:io_la_data_in[110] 30.6391 
*END

*D_NET *157 0.0122298
*CONN
*P la_data_in[111] I
*I *646:io_la_data_in[111] I *D CaravelTopLevel
*CAP
1 la_data_in[111] 0.00485784
2 *646:io_la_data_in[111] 0.00485784
3 *646:io_la_data_in[111] *280:11 0.000175894
4 *646:io_la_data_in[111] *408:11 0.000199711
5 *646:io_la_data_in[111] *410:11 0.00205444
6 *152:11 *646:io_la_data_in[111] 8.40488e-05
*RES
1 la_data_in[111] *646:io_la_data_in[111] 34.4079 
*END

*D_NET *158 0.0128806
*CONN
*P la_data_in[112] I
*I *646:io_la_data_in[112] I *D CaravelTopLevel
*CAP
1 la_data_in[112] 0.000133861
2 *646:io_la_data_in[112] 0.000544606
3 *158:9 0.00287265
4 *158:7 0.00246191
5 *646:io_la_data_in[112] *646:io_la_oenb[111] 0
6 *158:7 *646:io_la_oenb[116] 0
7 *158:9 *289:11 0.000458901
8 *158:9 *413:11 0.00640872
*RES
1 la_data_in[112] *158:7 7.14286 
2 *158:7 *158:9 68.3036 
3 *158:9 *646:io_la_data_in[112] 14.4554 
*END

*D_NET *159 0.0167777
*CONN
*P la_data_in[113] I
*I *646:io_la_data_in[113] I *D CaravelTopLevel
*CAP
1 la_data_in[113] 0.00283689
2 *646:io_la_data_in[113] 0.00283689
3 *646:io_la_data_in[113] la_data_out[111] 0.00475861
4 *646:io_la_data_in[113] la_data_out[112] 0.000104362
5 *646:io_la_data_in[113] *646:io_la_data_in[115] 0.00136935
6 *646:io_la_data_in[113] *646:io_la_oenb[114] 0.00240104
7 *646:io_la_data_in[113] *646:io_la_oenb[117] 7.35968e-05
8 *646:io_la_data_in[113] *291:9 0
9 *646:io_la_data_in[110] *646:io_la_data_in[113] 0.00239693
*RES
1 la_data_in[113] *646:io_la_data_in[113] 34.2296 
*END

*D_NET *160 0.0138875
*CONN
*P la_data_in[114] I
*I *646:io_la_data_in[114] I *D CaravelTopLevel
*CAP
1 la_data_in[114] 0.00299707
2 *646:io_la_data_in[114] 0.00299707
3 *646:io_la_data_in[114] la_data_out[112] 0.00175854
4 *646:io_la_data_in[114] *646:io_la_data_in[116] 0.0043816
5 *646:io_la_data_in[114] *646:io_la_data_in[117] 0.00160588
6 *646:io_la_data_in[114] *646:io_la_oenb[114] 2.53512e-06
7 *646:io_la_data_in[114] *646:io_la_oenb[118] 0.000144767
*RES
1 la_data_in[114] *646:io_la_data_in[114] 32.3938 
*END

*D_NET *161 0.0122788
*CONN
*P la_data_in[115] I
*I *646:io_la_data_in[115] I *D CaravelTopLevel
*CAP
1 la_data_in[115] 0.00431375
2 *646:io_la_data_in[115] 0.00431375
3 *646:io_la_data_in[115] la_data_out[111] 0.00150731
4 *646:io_la_data_in[115] la_data_out[115] 0
5 *646:io_la_data_in[115] *646:io_la_data_in[117] 0
6 *646:io_la_data_in[115] *646:io_la_data_in[120] 0
7 *646:io_la_data_in[115] *646:io_la_oenb[114] 0.000683348
8 *646:io_la_data_in[115] *646:io_la_oenb[119] 9.13208e-05
9 *646:io_la_data_in[113] *646:io_la_data_in[115] 0.00136935
*RES
1 la_data_in[115] *646:io_la_data_in[115] 33.3974 
*END

*D_NET *162 0.0186356
*CONN
*P la_data_in[116] I
*I *646:io_la_data_in[116] I *D CaravelTopLevel
*CAP
1 la_data_in[116] 0.00218992
2 *646:io_la_data_in[116] 0.00218992
3 *646:io_la_data_in[116] la_data_out[111] 0
4 *646:io_la_data_in[116] la_data_out[116] 0.00738664
5 *646:io_la_data_in[116] *646:io_la_data_in[117] 0.000204854
6 *646:io_la_data_in[116] *646:io_la_data_in[119] 0.000948698
7 *646:io_la_data_in[116] *646:io_la_data_in[120] 0.00133396
8 *646:io_la_data_in[116] *646:io_la_oenb[120] 0
9 *646:io_la_data_in[114] *646:io_la_data_in[116] 0.0043816
*RES
1 la_data_in[116] *646:io_la_data_in[116] 33.0928 
*END

*D_NET *163 0.0153635
*CONN
*P la_data_in[117] I
*I *646:io_la_data_in[117] I *D CaravelTopLevel
*CAP
1 la_data_in[117] 0.00245429
2 *646:io_la_data_in[117] 0.00245429
3 *646:io_la_data_in[117] la_data_out[112] 5.73464e-05
4 *646:io_la_data_in[117] la_data_out[117] 0
5 *646:io_la_data_in[117] *646:io_la_data_in[119] 0.00484895
6 *646:io_la_data_in[117] *646:io_la_oenb[114] 0.00225986
7 *646:io_la_data_in[117] *646:io_la_oenb[116] 0
8 *646:io_la_data_in[117] *646:io_la_oenb[119] 0.00147806
9 *646:io_la_data_in[114] *646:io_la_data_in[117] 0.00160588
10 *646:io_la_data_in[115] *646:io_la_data_in[117] 0
11 *646:io_la_data_in[116] *646:io_la_data_in[117] 0.000204854
*RES
1 la_data_in[117] *646:io_la_data_in[117] 32.3651 
*END

*D_NET *164 0.0189803
*CONN
*P la_data_in[118] I
*I *646:io_la_data_in[118] I *D CaravelTopLevel
*CAP
1 la_data_in[118] 0.00239802
2 *646:io_la_data_in[118] 0.00239802
3 *646:io_la_data_in[118] la_data_out[116] 0.00523558
4 *646:io_la_data_in[118] la_data_out[119] 0.00606483
5 *646:io_la_data_in[118] la_data_out[121] 0.00271186
6 *646:io_la_data_in[118] *646:io_la_data_in[121] 0.000171991
7 *646:io_la_data_in[118] *646:io_la_oenb[122] 0
*RES
1 la_data_in[118] *646:io_la_data_in[118] 33.5252 
*END

*D_NET *165 0.0189752
*CONN
*P la_data_in[119] I
*I *646:io_la_data_in[119] I *D CaravelTopLevel
*CAP
1 la_data_in[119] 0.00215544
2 *646:io_la_data_in[119] 0.00215544
3 *646:io_la_data_in[119] *646:io_la_data_in[120] 0.00668847
4 *646:io_la_data_in[119] *646:io_la_data_in[123] 0.00167321
5 *646:io_la_data_in[119] *646:io_la_oenb[119] 0.000504982
6 *646:io_la_data_in[116] *646:io_la_data_in[119] 0.000948698
7 *646:io_la_data_in[117] *646:io_la_data_in[119] 0.00484895
*RES
1 la_data_in[119] *646:io_la_data_in[119] 33.3307 
*END

*D_NET *166 0.00809717
*CONN
*P la_data_in[11] I
*I *646:io_la_data_in[11] I *D CaravelTopLevel
*CAP
1 la_data_in[11] 0.00209406
2 *646:io_la_data_in[11] 0.00209406
3 *646:io_la_data_in[11] la_data_out[10] 0.00297734
4 *646:io_la_data_in[11] la_data_out[12] 0.000592969
5 *646:io_la_data_in[11] la_data_out[13] 0.000338741
6 *646:io_la_data_in[11] la_data_out[9] 0
7 *646:io_la_data_in[11] *646:io_la_data_in[9] 0
8 *646:io_la_data_in[11] *646:io_la_oenb[10] 0
9 *646:io_la_data_in[11] *646:io_la_oenb[8] 0
*RES
1 la_data_in[11] *646:io_la_data_in[11] 27.0392 
*END

*D_NET *167 0.0206041
*CONN
*P la_data_in[120] I
*I *646:io_la_data_in[120] I *D CaravelTopLevel
*CAP
1 la_data_in[120] 0.00201342
2 *646:io_la_data_in[120] 0.00201342
3 *646:io_la_data_in[120] la_data_out[116] 0.000199214
4 *646:io_la_data_in[120] la_data_out[124] 0.00125414
5 *646:io_la_data_in[120] *646:io_la_data_in[121] 0.00679338
6 *646:io_la_data_in[120] *646:io_la_data_in[123] 0.000308105
7 *646:io_la_data_in[120] *295:9 0
8 *646:io_la_data_in[120] *300:9 0
9 *646:io_la_data_in[115] *646:io_la_data_in[120] 0
10 *646:io_la_data_in[116] *646:io_la_data_in[120] 0.00133396
11 *646:io_la_data_in[119] *646:io_la_data_in[120] 0.00668847
*RES
1 la_data_in[120] *646:io_la_data_in[120] 33.8856 
*END

*D_NET *168 0.020492
*CONN
*P la_data_in[121] I
*I *646:io_la_data_in[121] I *D CaravelTopLevel
*CAP
1 la_data_in[121] 0.00215982
2 *646:io_la_data_in[121] 0.00215982
3 *646:io_la_data_in[121] la_data_out[116] 0.00026221
4 *646:io_la_data_in[121] la_data_out[121] 0.00797367
5 *646:io_la_data_in[121] la_data_out[124] 0.000971143
6 *646:io_la_data_in[121] la_data_out[126] 0
7 *646:io_la_data_in[121] *646:io_la_data_in[126] 0
8 *646:io_la_data_in[118] *646:io_la_data_in[121] 0.000171991
9 *646:io_la_data_in[120] *646:io_la_data_in[121] 0.00679338
*RES
1 la_data_in[121] *646:io_la_data_in[121] 34.0297 
*END

*D_NET *169 0.0216174
*CONN
*P la_data_in[122] I
*I *646:io_la_data_in[122] I *D CaravelTopLevel
*CAP
1 la_data_in[122] 0.0024827
2 *646:io_la_data_in[122] 0.0024827
3 *646:io_la_data_in[122] la_data_out[122] 0.00800168
4 *646:io_la_data_in[122] *646:io_la_data_in[125] 0.00365119
5 *646:io_la_data_in[122] *646:io_la_oenb[119] 0.00457361
6 *646:io_la_data_in[122] *646:io_la_oenb[121] 0.00028312
7 *646:io_la_data_in[122] *646:io_la_oenb[124] 0.000142356
8 *646:io_la_data_in[122] *302:9 0
*RES
1 la_data_in[122] *646:io_la_data_in[122] 34.8712 
*END

*D_NET *170 0.0210352
*CONN
*P la_data_in[123] I
*I *646:io_la_data_in[123] I *D CaravelTopLevel
*CAP
1 la_data_in[123] 0.00225714
2 *646:io_la_data_in[123] 0.00225714
3 *646:io_la_data_in[123] la_data_out[124] 0.00651991
4 *646:io_la_data_in[123] *646:io_la_data_in[124] 0.00724339
5 *646:io_la_data_in[123] *646:io_la_oenb[119] 0.000528323
6 *646:io_la_data_in[123] *646:io_user_clock2 0
7 *646:io_la_data_in[123] *529:9 0.000248032
8 *646:io_la_data_in[123] *530:9 0
9 *646:io_la_data_in[119] *646:io_la_data_in[123] 0.00167321
10 *646:io_la_data_in[120] *646:io_la_data_in[123] 0.000308105
*RES
1 la_data_in[123] *646:io_la_data_in[123] 34.39 
*END

*D_NET *171 0.0215971
*CONN
*P la_data_in[124] I
*I *646:io_la_data_in[124] I *D CaravelTopLevel
*CAP
1 la_data_in[124] 0.00235473
2 *646:io_la_data_in[124] 0.00235473
3 *646:io_la_data_in[124] la_data_out[124] 0.000987118
4 *646:io_la_data_in[124] *646:io_la_oenb[119] 0.000561165
5 *646:io_la_data_in[124] *646:io_la_oenb[124] 0.00777866
6 *646:io_la_data_in[124] *428:15 0.000317293
7 *646:io_la_data_in[123] *646:io_la_data_in[124] 0.00724339
*RES
1 la_data_in[124] *646:io_la_data_in[124] 33.296 
*END

*D_NET *172 0.0203624
*CONN
*P la_data_in[125] I
*I *646:io_la_data_in[125] I *D CaravelTopLevel
*CAP
1 la_data_in[125] 0.0039802
2 *646:io_la_data_in[125] 0.0039802
3 *646:io_la_data_in[125] la_data_out[122] 0.000236355
4 *646:io_la_data_in[125] *646:io_la_oenb[124] 0.00842126
5 *646:io_la_data_in[125] *646:io_la_oenb[126] 9.31676e-05
6 *646:io_la_data_in[122] *646:io_la_data_in[125] 0.00365119
*RES
1 la_data_in[125] *646:io_la_data_in[125] 33.3776 
*END

*D_NET *173 0.0187241
*CONN
*P la_data_in[126] I
*I *646:io_la_data_in[126] I *D CaravelTopLevel
*CAP
1 la_data_in[126] 9.09641e-05
2 *646:io_la_data_in[126] 0.000817926
3 *173:11 0.00369999
4 *173:9 0.00297303
5 *646:io_la_data_in[126] *423:11 0
6 *173:11 la_data_out[126] 0.00352461
7 *173:11 *300:11 0.00761753
8 *646:io_la_data_in[121] *646:io_la_data_in[126] 0
*RES
1 la_data_in[126] *173:9 5.66071 
2 *173:9 *173:11 82.2679 
3 *173:11 *646:io_la_data_in[126] 19.3304 
*END

*D_NET *174 0.0223481
*CONN
*P la_data_in[127] I
*I *646:io_la_data_in[127] I *D CaravelTopLevel
*CAP
1 la_data_in[127] 0.00222014
2 *646:io_la_data_in[127] 0.00222014
3 *646:io_la_data_in[127] la_data_out[123] 0.00292896
4 *646:io_la_data_in[127] user_irq[2] 0.00604462
5 *646:io_la_data_in[127] *646:io_la_oenb[121] 0
6 *646:io_la_data_in[127] *646:io_la_oenb[126] 0.000744138
7 *646:io_la_data_in[127] *646:io_la_oenb[127] 0.00819011
*RES
1 la_data_in[127] *646:io_la_data_in[127] 34.2389 
*END

*D_NET *175 0.00944064
*CONN
*P la_data_in[12] I
*I *646:io_la_data_in[12] I *D CaravelTopLevel
*CAP
1 la_data_in[12] 0.00158276
2 *646:io_la_data_in[12] 0.00158276
3 *646:io_la_data_in[12] la_data_out[10] 0.00012445
4 *646:io_la_data_in[12] la_data_out[11] 0.00286185
5 *646:io_la_data_in[12] la_data_out[12] 0.000231359
6 *646:io_la_data_in[12] *646:io_la_oenb[11] 0.000163293
7 *646:io_la_data_in[12] *646:io_la_oenb[12] 0.00278187
8 *646:io_la_data_in[12] *646:io_la_oenb[9] 0.000112284
*RES
1 la_data_in[12] *646:io_la_data_in[12] 26.8951 
*END

*D_NET *176 0.00995255
*CONN
*P la_data_in[13] I
*I *646:io_la_data_in[13] I *D CaravelTopLevel
*CAP
1 la_data_in[13] 0.00128775
2 *646:io_la_data_in[13] 0.00128775
3 *646:io_la_data_in[13] la_data_out[12] 0.00274651
4 *646:io_la_data_in[13] la_data_out[14] 4.48889e-05
5 *646:io_la_data_in[13] *646:io_la_data_in[15] 0.000153319
6 *646:io_la_data_in[13] *646:io_la_oenb[10] 9.36062e-05
7 *646:io_la_data_in[13] *646:io_la_oenb[12] 0.00330584
8 *646:io_la_data_in[13] *646:io_la_oenb[13] 0.000117535
9 *646:io_la_data_in[13] *646:io_la_oenb[14] 0.000915346
*RES
1 la_data_in[13] *646:io_la_data_in[13] 26.6789 
*END

*D_NET *177 0.00801385
*CONN
*P la_data_in[14] I
*I *646:io_la_data_in[14] I *D CaravelTopLevel
*CAP
1 la_data_in[14] 0.00179017
2 *646:io_la_data_in[14] 0.00179017
3 *646:io_la_data_in[14] *646:io_la_oenb[11] 0.000171099
4 *646:io_la_data_in[14] *646:io_la_oenb[13] 0.00324109
5 *646:io_la_data_in[14] *646:io_la_oenb[14] 0.00028161
6 *646:io_la_data_in[14] *646:io_la_oenb[15] 0.000739697
*RES
1 la_data_in[14] *646:io_la_data_in[14] 26.5348 
*END

*D_NET *178 0.00789658
*CONN
*P la_data_in[15] I
*I *646:io_la_data_in[15] I *D CaravelTopLevel
*CAP
1 la_data_in[15] 0.00157279
2 *646:io_la_data_in[15] 0.00157279
3 *646:io_la_data_in[15] la_data_out[14] 0.00266905
4 *646:io_la_data_in[15] la_data_out[15] 0.00173719
5 *646:io_la_data_in[15] *646:io_la_data_in[17] 0.000105741
6 *646:io_la_data_in[15] *646:io_la_oenb[14] 8.57121e-05
7 *646:io_la_data_in[13] *646:io_la_data_in[15] 0.000153319
*RES
1 la_data_in[15] *646:io_la_data_in[15] 27.0705 
*END

*D_NET *179 0.00707934
*CONN
*P la_data_in[16] I
*I *646:io_la_data_in[16] I *D CaravelTopLevel
*CAP
1 la_data_in[16] 0.00188393
2 *646:io_la_data_in[16] 0.00188393
3 *646:io_la_data_in[16] *646:io_la_oenb[13] 0
4 *646:io_la_data_in[16] *646:io_la_oenb[15] 0.00301196
5 *646:io_la_data_in[16] *646:io_la_oenb[16] 0.000299533
*RES
1 la_data_in[16] *646:io_la_data_in[16] 26.1744 
*END

*D_NET *180 0.00851484
*CONN
*P la_data_in[17] I
*I *646:io_la_data_in[17] I *D CaravelTopLevel
*CAP
1 la_data_in[17] 0.00122701
2 *646:io_la_data_in[17] 0.00122701
3 *646:io_la_data_in[17] la_data_out[15] 0.000344434
4 *646:io_la_data_in[17] la_data_out[16] 0.00228976
5 *646:io_la_data_in[17] la_data_out[17] 0.00280265
6 *646:io_la_data_in[17] *646:io_la_data_in[19] 0
7 *646:io_la_data_in[17] *646:io_la_oenb[16] 0.000353896
8 *646:io_la_data_in[17] *646:io_la_oenb[18] 0.000164328
9 *646:io_la_data_in[15] *646:io_la_data_in[17] 0.000105741
*RES
1 la_data_in[17] *646:io_la_data_in[17] 25.9582 
*END

*D_NET *181 0.00758732
*CONN
*P la_data_in[18] I
*I *646:io_la_data_in[18] I *D CaravelTopLevel
*CAP
1 la_data_in[18] 0.0015275
2 *646:io_la_data_in[18] 0.0015275
3 *646:io_la_data_in[18] la_data_out[17] 0.000229894
4 *646:io_la_data_in[18] la_data_out[18] 0.00151347
5 *646:io_la_data_in[18] *646:io_la_oenb[17] 0.00278897
6 *646:io_la_data_in[18] *646:io_la_oenb[19] 0
*RES
1 la_data_in[18] *646:io_la_data_in[18] 26.8326 
*END

*D_NET *182 0.00673812
*CONN
*P la_data_in[19] I
*I *646:io_la_data_in[19] I *D CaravelTopLevel
*CAP
1 la_data_in[19] 0.00181759
2 *646:io_la_data_in[19] 0.00181759
3 *646:io_la_data_in[19] la_data_out[17] 0
4 *646:io_la_data_in[19] la_data_out[20] 0.000120047
5 *646:io_la_data_in[19] *646:io_la_data_in[21] 0
6 *646:io_la_data_in[19] *646:io_la_oenb[18] 0.0025801
7 *646:io_la_data_in[19] *646:io_la_oenb[19] 0.000321942
8 *646:io_la_data_in[19] *646:io_la_oenb[20] 8.08591e-05
9 *646:io_la_data_in[17] *646:io_la_data_in[19] 0
*RES
1 la_data_in[19] *646:io_la_data_in[19] 25.5979 
*END

*D_NET *183 0.0127134
*CONN
*P la_data_in[1] I
*I *646:io_la_data_in[1] I *D CaravelTopLevel
*CAP
1 la_data_in[1] 0.00362561
2 *646:io_la_data_in[1] 0.00362561
3 *646:io_la_data_in[1] wbs_dat_o[29] 0
4 *646:io_la_data_in[1] *646:io_la_data_in[2] 0.000195729
5 *646:io_la_data_in[1] *646:io_la_oenb[3] 0.000203025
6 *646:io_la_data_in[1] *646:io_wbs_adr_i[30] 0
7 *646:io_la_data_in[1] *646:io_wbs_dat_i[30] 0.000869
8 *646:io_la_data_in[1] *205:13 0.000229234
9 *646:io_la_data_in[1] *311:9 0.00032579
10 *646:io_la_data_in[1] *333:13 0.000247187
11 *646:io_la_data_in[1] *400:9 0.000120342
12 *646:io_la_data_in[1] *439:9 0.000826257
13 *646:io_la_data_in[1] *600:11 0.000376907
14 *646:io_la_data_in[1] *631:11 0.000272593
15 *646:io_la_data_in[1] *632:13 0.000386123
16 *646:io_la_data_in[0] *646:io_la_data_in[1] 0.00140994
*RES
1 la_data_in[1] *646:io_la_data_in[1] 28.6811 
*END

*D_NET *184 0.00447697
*CONN
*P la_data_in[20] I
*I *646:io_la_data_in[20] I *D CaravelTopLevel
*CAP
1 la_data_in[20] 0.00212859
2 *646:io_la_data_in[20] 0.00212859
3 *646:io_la_data_in[20] la_data_out[18] 2.29675e-05
4 *646:io_la_data_in[20] la_data_out[19] 0
5 *646:io_la_data_in[20] *646:io_la_data_in[22] 0
6 *646:io_la_data_in[20] *646:io_la_oenb[19] 0
7 *646:io_la_data_in[20] *646:io_la_oenb[21] 0.000196816
*RES
1 la_data_in[20] *646:io_la_data_in[20] 27.0048 
*END

*D_NET *185 0.0074435
*CONN
*P la_data_in[21] I
*I *646:io_la_data_in[21] I *D CaravelTopLevel
*CAP
1 la_data_in[21] 0.00117866
2 *646:io_la_data_in[21] 0.00117866
3 *646:io_la_data_in[21] la_data_out[19] 9.05863e-05
4 *646:io_la_data_in[21] la_data_out[21] 0.00233318
5 *646:io_la_data_in[21] *646:io_la_data_in[22] 0.000116565
6 *646:io_la_data_in[21] *646:io_la_oenb[19] 0.000169242
7 *646:io_la_data_in[21] *646:io_la_oenb[20] 0.0023766
8 *646:io_la_data_in[19] *646:io_la_data_in[21] 0
*RES
1 la_data_in[21] *646:io_la_data_in[21] 25.2376 
*END

*D_NET *186 0.00520423
*CONN
*P la_data_in[22] I
*I *646:io_la_data_in[22] I *D CaravelTopLevel
*CAP
1 la_data_in[22] 0.00211592
2 *646:io_la_data_in[22] 0.00211592
3 *646:io_la_data_in[22] la_data_out[20] 9.97594e-05
4 *646:io_la_data_in[22] la_data_out[21] 0
5 *646:io_la_data_in[22] la_data_out[22] 0
6 *646:io_la_data_in[22] la_data_out[23] 0.00044982
7 *646:io_la_data_in[22] *646:io_la_data_in[23] 0.000185695
8 *646:io_la_data_in[22] *646:io_la_oenb[20] 0.000120551
9 *646:io_la_data_in[20] *646:io_la_data_in[22] 0
10 *646:io_la_data_in[21] *646:io_la_data_in[22] 0.000116565
*RES
1 la_data_in[22] *646:io_la_data_in[22] 27.1827 
*END

*D_NET *187 0.0057811
*CONN
*P la_data_in[23] I
*I *646:io_la_data_in[23] I *D CaravelTopLevel
*CAP
1 la_data_in[23] 0.00135106
2 *646:io_la_data_in[23] 0.00135106
3 *646:io_la_data_in[23] la_data_out[21] 8.69052e-05
4 *646:io_la_data_in[23] la_data_out[22] 0.000418464
5 *646:io_la_data_in[23] la_data_out[23] 0.000349165
6 *646:io_la_data_in[23] la_data_out[24] 0.000309118
7 *646:io_la_data_in[23] *646:io_la_data_in[24] 0.000169242
8 *646:io_la_data_in[23] *646:io_la_oenb[22] 4.16907e-05
9 *646:io_la_data_in[23] *646:io_la_oenb[23] 0.00151869
10 *646:io_la_data_in[22] *646:io_la_data_in[23] 0.000185695
*RES
1 la_data_in[23] *646:io_la_data_in[23] 24.8772 
*END

*D_NET *188 0.00504548
*CONN
*P la_data_in[24] I
*I *646:io_la_data_in[24] I *D CaravelTopLevel
*CAP
1 la_data_in[24] 0.00146329
2 *646:io_la_data_in[24] 0.00146329
3 *646:io_la_data_in[24] la_data_out[24] 0.000231359
4 *646:io_la_data_in[24] la_data_out[25] 0.000215317
5 *646:io_la_data_in[24] *646:io_la_data_in[25] 0.000825025
6 *646:io_la_data_in[24] *646:io_la_oenb[22] 0.000356018
7 *646:io_la_data_in[24] *646:io_la_oenb[24] 0.000321942
8 *646:io_la_data_in[23] *646:io_la_data_in[24] 0.000169242
*RES
1 la_data_in[24] *646:io_la_data_in[24] 24.661 
*END

*D_NET *189 0.00687034
*CONN
*P la_data_in[25] I
*I *646:io_la_data_in[25] I *D CaravelTopLevel
*CAP
1 la_data_in[25] 0.00107286
2 *646:io_la_data_in[25] 0.00107286
3 *646:io_la_data_in[25] la_data_out[25] 0.000226427
4 *646:io_la_data_in[25] la_data_out[26] 5.04362e-05
5 *646:io_la_data_in[25] *646:io_la_data_in[26] 0.000358551
6 *646:io_la_data_in[25] *646:io_la_oenb[24] 0.00191927
7 *646:io_la_data_in[25] *646:io_la_oenb[25] 0.00134491
8 *646:io_la_data_in[25] *646:io_la_oenb[26] 0
9 *646:io_la_data_in[24] *646:io_la_data_in[25] 0.000825025
*RES
1 la_data_in[25] *646:io_la_data_in[25] 23.8396 
*END

*D_NET *190 0.00558215
*CONN
*P la_data_in[26] I
*I *646:io_la_data_in[26] I *D CaravelTopLevel
*CAP
1 la_data_in[26] 0.00150253
2 *646:io_la_data_in[26] 0.00150253
3 *646:io_la_data_in[26] la_data_out[26] 0.00170733
4 *646:io_la_data_in[26] *646:io_la_oenb[24] 0.000139242
5 *646:io_la_data_in[26] *646:io_la_oenb[25] 0.00037197
6 *646:io_la_data_in[25] *646:io_la_data_in[26] 0.000358551
*RES
1 la_data_in[26] *646:io_la_data_in[26] 24.3007 
*END

*D_NET *191 0.00621893
*CONN
*P la_data_in[27] I
*I *646:io_la_data_in[27] I *D CaravelTopLevel
*CAP
1 la_data_in[27] 0.00138403
2 *646:io_la_data_in[27] 0.00138403
3 *646:io_la_data_in[27] la_data_out[25] 0
4 *646:io_la_data_in[27] la_data_out[26] 0.00116157
5 *646:io_la_data_in[27] la_data_out[27] 0.000392425
6 *646:io_la_data_in[27] *646:io_la_oenb[25] 0.000126195
7 *646:io_la_data_in[27] *646:io_la_oenb[26] 0.00177068
*RES
1 la_data_in[27] *646:io_la_data_in[27] 26.3179 
*END

*D_NET *192 0.00486834
*CONN
*P la_data_in[28] I
*I *646:io_la_data_in[28] I *D CaravelTopLevel
*CAP
1 la_data_in[28] 0.00153008
2 *646:io_la_data_in[28] 0.00153008
3 *646:io_la_data_in[28] la_data_out[28] 0.001504
4 *646:io_la_data_in[28] la_data_out[29] 0
5 *646:io_la_data_in[28] *646:io_la_data_in[29] 0
6 *646:io_la_data_in[28] *646:io_la_oenb[27] 0.000304187
*RES
1 la_data_in[28] *646:io_la_data_in[28] 23.9404 
*END

*D_NET *193 0.0037217
*CONN
*P la_data_in[29] I
*I *646:io_la_data_in[29] I *D CaravelTopLevel
*CAP
1 la_data_in[29] 0.00153024
2 *646:io_la_data_in[29] 0.00153024
3 *646:io_la_data_in[29] la_data_out[29] 0.000159205
4 *646:io_la_data_in[29] *646:io_la_oenb[27] 0
5 *646:io_la_data_in[29] *646:io_la_oenb[28] 0.000502022
6 *646:io_la_data_in[28] *646:io_la_data_in[29] 0
*RES
1 la_data_in[29] *646:io_la_data_in[29] 23.7242 
*END

*D_NET *194 0.011353
*CONN
*P la_data_in[2] I
*I *646:io_la_data_in[2] I *D CaravelTopLevel
*CAP
1 la_data_in[2] 0.00155096
2 *646:io_la_data_in[2] 0.00155096
3 *646:io_la_data_in[2] la_data_out[0] 0.000227223
4 *646:io_la_data_in[2] la_data_out[2] 0.00457798
5 *646:io_la_data_in[2] *646:io_la_oenb[3] 0.00222856
6 *646:io_la_data_in[2] *646:io_wbs_adr_i[31] 0.000293078
7 *646:io_la_data_in[0] *646:io_la_data_in[2] 0.000728487
8 *646:io_la_data_in[1] *646:io_la_data_in[2] 0.000195729
*RES
1 la_data_in[2] *646:io_la_data_in[2] 28.6968 
*END

*D_NET *195 0.00534487
*CONN
*P la_data_in[30] I
*I *646:io_la_data_in[30] I *D CaravelTopLevel
*CAP
1 la_data_in[30] 0.0010958
2 *646:io_la_data_in[30] 0.0010958
3 *646:io_la_data_in[30] la_data_out[29] 0.000745521
4 *646:io_la_data_in[30] la_data_out[30] 0.000253649
5 *646:io_la_data_in[30] *646:io_la_data_in[31] 0.000121515
6 *646:io_la_data_in[30] *646:io_la_oenb[29] 0.00130485
7 *646:io_la_data_in[30] *646:io_la_oenb[30] 0.000727744
*RES
1 la_data_in[30] *646:io_la_data_in[30] 23.2414 
*END

*D_NET *196 0.00430023
*CONN
*P la_data_in[31] I
*I *646:io_la_data_in[31] I *D CaravelTopLevel
*CAP
1 la_data_in[31] 0.00132298
2 *646:io_la_data_in[31] 0.00132298
3 *646:io_la_data_in[31] la_data_out[31] 0.00114363
4 *646:io_la_data_in[31] *646:io_la_data_in[32] 0.000154149
5 *646:io_la_data_in[31] *646:io_la_oenb[30] 0.000234974
6 *646:io_la_data_in[30] *646:io_la_data_in[31] 0.000121515
*RES
1 la_data_in[31] *646:io_la_data_in[31] 23.3638 
*END

*D_NET *197 0.00394623
*CONN
*P la_data_in[32] I
*I *646:io_la_data_in[32] I *D CaravelTopLevel
*CAP
1 la_data_in[32] 0.00117053
2 *646:io_la_data_in[32] 0.00117053
3 *646:io_la_data_in[32] la_data_out[31] 0.000286157
4 *646:io_la_data_in[32] la_data_out[32] 0.000328169
5 *646:io_la_data_in[32] *646:io_la_oenb[31] 0.000386881
6 *646:io_la_data_in[32] *646:io_la_oenb[32] 0.00044982
7 *646:io_la_data_in[31] *646:io_la_data_in[32] 0.000154149
*RES
1 la_data_in[32] *646:io_la_data_in[32] 23.2197 
*END

*D_NET *198 0.00391124
*CONN
*P la_data_in[33] I
*I *646:io_la_data_in[33] I *D CaravelTopLevel
*CAP
1 la_data_in[33] 0.00125518
2 *646:io_la_data_in[33] 0.00125518
3 *646:io_la_data_in[33] la_data_out[32] 0.000402919
4 *646:io_la_data_in[33] la_data_out[33] 0.000898207
5 *646:io_la_data_in[33] *646:io_la_oenb[32] 9.97563e-05
*RES
1 la_data_in[33] *646:io_la_data_in[33] 23.0035 
*END

*D_NET *199 0.00358866
*CONN
*P la_data_in[34] I
*I *646:io_la_data_in[34] I *D CaravelTopLevel
*CAP
1 la_data_in[34] 0.00113317
2 *646:io_la_data_in[34] 0.00113317
3 *646:io_la_data_in[34] la_data_out[33] 0.000356018
4 *646:io_la_data_in[34] la_data_out[34] 0.000821545
5 *646:io_la_data_in[34] *646:io_la_oenb[33] 0.000144758
*RES
1 la_data_in[34] *646:io_la_data_in[34] 22.8594 
*END

*D_NET *200 0.00342066
*CONN
*P la_data_in[35] I
*I *646:io_la_data_in[35] I *D CaravelTopLevel
*CAP
1 la_data_in[35] 0.00102468
2 *646:io_la_data_in[35] 0.00102468
3 *646:io_la_data_in[35] la_data_out[34] 0.000168416
4 *646:io_la_data_in[35] la_data_out[35] 0.000727744
5 *646:io_la_data_in[35] *646:io_la_data_in[36] 0
6 *646:io_la_data_in[35] *646:io_la_oenb[34] 0.000326674
7 *646:io_la_data_in[35] *646:io_la_oenb[35] 0.000148473
*RES
1 la_data_in[35] *646:io_la_data_in[35] 22.3045 
*END

*D_NET *201 0.00333617
*CONN
*P la_data_in[36] I
*I *646:io_la_data_in[36] I *D CaravelTopLevel
*CAP
1 la_data_in[36] 0.0011267
2 *646:io_la_data_in[36] 0.0011267
3 *646:io_la_data_in[36] la_data_out[35] 0.000152092
4 *646:io_la_data_in[36] la_data_out[36] 0.000325859
5 *646:io_la_data_in[36] *646:io_la_oenb[35] 0.000604812
6 *646:io_la_data_in[35] *646:io_la_data_in[36] 0
*RES
1 la_data_in[36] *646:io_la_data_in[36] 22.499 
*END

*D_NET *202 0.00291168
*CONN
*P la_data_in[37] I
*I *646:io_la_data_in[37] I *D CaravelTopLevel
*CAP
1 la_data_in[37] 0.00113921
2 *646:io_la_data_in[37] 0.00113921
3 *646:io_la_data_in[37] la_data_out[37] 0.00044982
4 *646:io_la_data_in[37] *646:io_la_oenb[36] 0.000183444
5 *646:io_la_data_in[37] *646:io_la_oenb[37] 0
*RES
1 la_data_in[37] *646:io_la_data_in[37] 22.2828 
*END

*D_NET *203 0.00258836
*CONN
*P la_data_in[38] I
*I *646:io_la_data_in[38] I *D CaravelTopLevel
*CAP
1 la_data_in[38] 0.00101593
2 *646:io_la_data_in[38] 0.00101593
3 *646:io_la_data_in[38] la_data_out[37] 0
4 *646:io_la_data_in[38] la_data_out[38] 0.000356018
5 *646:io_la_data_in[38] *646:io_la_oenb[37] 0.00020049
*RES
1 la_data_in[38] *646:io_la_data_in[38] 22.0666 
*END

*D_NET *204 0.00272273
*CONN
*P la_data_in[39] I
*I *646:io_la_data_in[39] I *D CaravelTopLevel
*CAP
1 la_data_in[39] 0.00113079
2 *646:io_la_data_in[39] 0.00113079
3 *646:io_la_data_in[39] la_data_out[39] 0.000198938
4 *646:io_la_data_in[39] *646:io_la_oenb[38] 0.000262217
*RES
1 la_data_in[39] *646:io_la_data_in[39] 21.9225 
*END

*D_NET *205 0.0110603
*CONN
*P la_data_in[3] I
*I *646:io_la_data_in[3] I *D CaravelTopLevel
*CAP
1 la_data_in[3] 0.000660998
2 *646:io_la_data_in[3] 0.000113119
3 *205:13 0.00115802
4 *205:7 0.0017059
5 *205:13 *333:13 0.00416302
6 *205:13 *400:9 0.000298175
7 *205:13 *439:9 0.00273181
8 *646:io_la_data_in[0] *205:7 0
9 *646:io_la_data_in[1] *205:13 0.000229234
*RES
1 la_data_in[3] *205:7 16.5536 
2 *205:7 *205:13 49.6696 
3 *205:13 *646:io_la_data_in[3] 1.5 
*END

*D_NET *206 0.00235832
*CONN
*P la_data_in[40] I
*I *646:io_la_data_in[40] I *D CaravelTopLevel
*CAP
1 la_data_in[40] 0.00105022
2 *646:io_la_data_in[40] 0.00105022
3 *646:io_la_data_in[40] la_data_out[40] 0.000112284
4 *646:io_la_data_in[40] *646:io_la_oenb[39] 0.000145592
*RES
1 la_data_in[40] *646:io_la_data_in[40] 21.7063 
*END

*D_NET *207 0.00204306
*CONN
*P la_data_in[41] I
*I *646:io_la_data_in[41] I *D CaravelTopLevel
*CAP
1 la_data_in[41] 0.000978697
2 *646:io_la_data_in[41] 0.000978697
3 *646:io_la_data_in[41] la_data_out[41] 5.73499e-05
4 *646:io_la_data_in[41] *646:io_la_oenb[40] 2.83129e-05
*RES
1 la_data_in[41] *646:io_la_data_in[41] 21.5622 
*END

*D_NET *208 0.00170975
*CONN
*P la_data_in[42] I
*I *646:io_la_data_in[42] I *D CaravelTopLevel
*CAP
1 la_data_in[42] 0.000834633
2 *646:io_la_data_in[42] 0.000834633
3 *646:io_la_data_in[42] *646:io_la_oenb[41] 4.04846e-05
*RES
1 la_data_in[42] *646:io_la_data_in[42] 17.6518 
*END

*D_NET *209 0.00162366
*CONN
*P la_data_in[43] I
*I *646:io_la_data_in[43] I *D CaravelTopLevel
*CAP
1 la_data_in[43] 0.000811832
2 *646:io_la_data_in[43] 0.000811832
3 *646:io_la_data_in[43] la_data_out[43] 0
*RES
1 la_data_in[43] *646:io_la_data_in[43] 16.7054 
*END

*D_NET *210 0.00148852
*CONN
*P la_data_in[44] I
*I *646:io_la_data_in[44] I *D CaravelTopLevel
*CAP
1 la_data_in[44] 0.000744261
2 *646:io_la_data_in[44] 0.000744261
3 *646:io_la_data_in[44] *646:io_la_oenb[43] 0
*RES
1 la_data_in[44] *646:io_la_data_in[44] 15.3482 
*END

*D_NET *211 0.00141047
*CONN
*P la_data_in[45] I
*I *646:io_la_data_in[45] I *D CaravelTopLevel
*CAP
1 la_data_in[45] 0.000705236
2 *646:io_la_data_in[45] 0.000705236
*RES
1 la_data_in[45] *646:io_la_data_in[45] 14.5268 
*END

*D_NET *212 0.0012934
*CONN
*P la_data_in[46] I
*I *646:io_la_data_in[46] I *D CaravelTopLevel
*CAP
1 la_data_in[46] 0.000646699
2 *646:io_la_data_in[46] 0.000646699
*RES
1 la_data_in[46] *646:io_la_data_in[46] 13.2946 
*END

*D_NET *213 0.00121666
*CONN
*P la_data_in[47] I
*I *646:io_la_data_in[47] I *D CaravelTopLevel
*CAP
1 la_data_in[47] 0.000608329
2 *646:io_la_data_in[47] 0.000608329
*RES
1 la_data_in[47] *646:io_la_data_in[47] 12.5982 
*END

*D_NET *214 0.0012934
*CONN
*P la_data_in[48] I
*I *646:io_la_data_in[48] I *D CaravelTopLevel
*CAP
1 la_data_in[48] 0.000646699
2 *646:io_la_data_in[48] 0.000646699
*RES
1 la_data_in[48] *646:io_la_data_in[48] 13.2946 
*END

*D_NET *215 0.00141047
*CONN
*P la_data_in[49] I
*I *646:io_la_data_in[49] I *D CaravelTopLevel
*CAP
1 la_data_in[49] 0.000705236
2 *646:io_la_data_in[49] 0.000705236
*RES
1 la_data_in[49] *646:io_la_data_in[49] 14.5268 
*END

*D_NET *216 0.0116863
*CONN
*P la_data_in[4] I
*I *646:io_la_data_in[4] I *D CaravelTopLevel
*CAP
1 la_data_in[4] 0.00164912
2 *646:io_la_data_in[4] 0.00164912
3 *646:io_la_data_in[4] la_data_out[5] 0.000449524
4 *646:io_la_data_in[4] *646:io_la_data_in[6] 0.00136477
5 *646:io_la_data_in[4] *646:io_la_data_in[7] 0
6 *646:io_la_data_in[4] *646:io_la_oenb[2] 0.00273751
7 *646:io_la_data_in[4] *646:io_la_oenb[4] 0.00371655
8 *646:io_la_data_in[4] *646:io_la_oenb[6] 0.000119725
*RES
1 la_data_in[4] *646:io_la_data_in[4] 28.3364 
*END

*D_NET *217 0.00148852
*CONN
*P la_data_in[50] I
*I *646:io_la_data_in[50] I *D CaravelTopLevel
*CAP
1 la_data_in[50] 0.000744261
2 *646:io_la_data_in[50] 0.000744261
3 *646:io_la_data_in[50] la_data_out[50] 0
*RES
1 la_data_in[50] *646:io_la_data_in[50] 15.3482 
*END

*D_NET *218 0.00162366
*CONN
*P la_data_in[51] I
*I *646:io_la_data_in[51] I *D CaravelTopLevel
*CAP
1 la_data_in[51] 0.000811832
2 *646:io_la_data_in[51] 0.000811832
3 *646:io_la_data_in[51] *646:io_la_oenb[50] 0
*RES
1 la_data_in[51] *646:io_la_data_in[51] 16.7054 
*END

*D_NET *219 0.00180237
*CONN
*P la_data_in[52] I
*I *646:io_la_data_in[52] I *D CaravelTopLevel
*CAP
1 la_data_in[52] 0.000899768
2 *646:io_la_data_in[52] 0.000899768
3 *646:io_la_data_in[52] la_data_out[52] 2.83284e-06
4 *646:io_la_data_in[52] *646:io_la_oenb[51] 0
*RES
1 la_data_in[52] *646:io_la_data_in[52] 21.346 
*END

*D_NET *220 0.00204301
*CONN
*P la_data_in[53] I
*I *646:io_la_data_in[53] I *D CaravelTopLevel
*CAP
1 la_data_in[53] 0.000978676
2 *646:io_la_data_in[53] 0.000978676
3 *646:io_la_data_in[53] la_data_out[53] 2.83129e-05
4 *646:io_la_data_in[53] *646:io_la_oenb[52] 5.73464e-05
*RES
1 la_data_in[53] *646:io_la_data_in[53] 21.5622 
*END

*D_NET *221 0.00231288
*CONN
*P la_data_in[54] I
*I *646:io_la_data_in[54] I *D CaravelTopLevel
*CAP
1 la_data_in[54] 0.00105391
2 *646:io_la_data_in[54] 0.00105391
3 *646:io_la_data_in[54] la_data_out[54] 6.82827e-05
4 *646:io_la_data_in[54] *646:io_la_oenb[53] 0.000136789
*RES
1 la_data_in[54] *646:io_la_data_in[54] 21.7063 
*END

*D_NET *222 0.00261397
*CONN
*P la_data_in[55] I
*I *646:io_la_data_in[55] I *D CaravelTopLevel
*CAP
1 la_data_in[55] 0.00097586
2 *646:io_la_data_in[55] 0.00097586
3 *646:io_la_data_in[55] la_data_out[55] 0.000446939
4 *646:io_la_data_in[55] *646:io_la_oenb[54] 0.000215309
5 *646:io_la_data_in[55] *646:io_la_oenb[55] 0
*RES
1 la_data_in[55] *646:io_la_data_in[55] 21.9225 
*END

*D_NET *223 0.00240262
*CONN
*P la_data_in[56] I
*I *646:io_la_data_in[56] I *D CaravelTopLevel
*CAP
1 la_data_in[56] 0.00103152
2 *646:io_la_data_in[56] 0.00103152
3 *646:io_la_data_in[56] la_data_out[56] 0.000135195
4 *646:io_la_data_in[56] *646:io_la_oenb[55] 0.000204397
*RES
1 la_data_in[56] *646:io_la_data_in[56] 22.0666 
*END

*D_NET *224 0.0029571
*CONN
*P la_data_in[57] I
*I *646:io_la_data_in[57] I *D CaravelTopLevel
*CAP
1 la_data_in[57] 0.00114832
2 *646:io_la_data_in[57] 0.00114832
3 *646:io_la_data_in[57] la_data_out[56] 2.83129e-05
4 *646:io_la_data_in[57] la_data_out[57] 0.000313288
5 *646:io_la_data_in[57] *646:io_la_oenb[56] 0.000318849
*RES
1 la_data_in[57] *646:io_la_data_in[57] 21.3389 
*END

*D_NET *225 0.00350956
*CONN
*P la_data_in[58] I
*I *646:io_la_data_in[58] I *D CaravelTopLevel
*CAP
1 la_data_in[58] 0.00112366
2 *646:io_la_data_in[58] 0.00112366
3 *646:io_la_data_in[58] la_data_out[57] 0.000104357
4 *646:io_la_data_in[58] la_data_out[58] 0.000344434
5 *646:io_la_data_in[58] *646:io_la_data_in[59] 0
6 *646:io_la_data_in[58] *646:io_la_oenb[57] 0.000551235
7 *646:io_la_data_in[58] *646:io_la_oenb[58] 0.00026221
*RES
1 la_data_in[58] *646:io_la_data_in[58] 22.499 
*END

*D_NET *226 0.00338482
*CONN
*P la_data_in[59] I
*I *646:io_la_data_in[59] I *D CaravelTopLevel
*CAP
1 la_data_in[59] 0.00115803
2 *646:io_la_data_in[59] 0.00115803
3 *646:io_la_data_in[59] la_data_out[58] 0.000105733
4 *646:io_la_data_in[59] la_data_out[59] 0.000167858
5 *646:io_la_data_in[59] *646:io_la_oenb[58] 0.000699666
6 *646:io_la_data_in[59] *646:io_la_oenb[59] 9.55055e-05
7 *646:io_la_data_in[58] *646:io_la_data_in[59] 0
*RES
1 la_data_in[59] *646:io_la_data_in[59] 22.3045 
*END

*D_NET *227 0.0116109
*CONN
*P la_data_in[5] I
*I *646:io_la_data_in[5] I *D CaravelTopLevel
*CAP
1 la_data_in[5] 0.00160258
2 *646:io_la_data_in[5] 0.00160258
3 *646:io_la_data_in[5] la_data_out[2] 0.000400038
4 *646:io_la_data_in[5] la_data_out[4] 0.000595333
5 *646:io_la_data_in[5] la_data_out[5] 0.00425465
6 *646:io_la_data_in[5] *646:io_la_data_in[7] 0.0003235
7 *646:io_la_data_in[5] *646:io_la_oenb[2] 0.000117535
8 *646:io_la_data_in[5] *646:io_la_oenb[3] 0.00261503
9 *646:io_la_data_in[5] *505:11 9.96942e-05
*RES
1 la_data_in[5] *646:io_la_data_in[5] 27.8536 
*END

*D_NET *228 0.00319532
*CONN
*P la_data_in[60] I
*I *646:io_la_data_in[60] I *D CaravelTopLevel
*CAP
1 la_data_in[60] 0.00133436
2 *646:io_la_data_in[60] 0.00133436
3 *646:io_la_data_in[60] la_data_out[59] 0.000215309
4 *646:io_la_data_in[60] *646:io_la_oenb[59] 0.000311287
*RES
1 la_data_in[60] *646:io_la_data_in[60] 22.8594 
*END

*D_NET *229 0.00370687
*CONN
*P la_data_in[61] I
*I *646:io_la_data_in[61] I *D CaravelTopLevel
*CAP
1 la_data_in[61] 0.00138983
2 *646:io_la_data_in[61] 0.00138983
3 *646:io_la_data_in[61] la_data_out[60] 0
4 *646:io_la_data_in[61] la_data_out[61] 0.000927205
*RES
1 la_data_in[61] *646:io_la_data_in[61] 23.0035 
*END

*D_NET *230 0.003794
*CONN
*P la_data_in[62] I
*I *646:io_la_data_in[62] I *D CaravelTopLevel
*CAP
1 la_data_in[62] 0.0014176
2 *646:io_la_data_in[62] 0.0014176
3 *646:io_la_data_in[62] la_data_out[62] 0.000288868
4 *646:io_la_data_in[62] *646:io_la_oenb[62] 0.000669925
*RES
1 la_data_in[62] *646:io_la_data_in[62] 21.9094 
*END

*D_NET *231 0.00448409
*CONN
*P la_data_in[63] I
*I *646:io_la_data_in[63] I *D CaravelTopLevel
*CAP
1 la_data_in[63] 0.00140407
2 *646:io_la_data_in[63] 0.00140407
3 *646:io_la_data_in[63] la_data_out[62] 0.000733433
4 *646:io_la_data_in[63] la_data_out[64] 0
5 *646:io_la_data_in[63] *646:io_la_data_in[64] 0
6 *646:io_la_data_in[63] *646:io_la_oenb[62] 0.000191302
7 *646:io_la_data_in[63] *646:io_la_oenb[63] 0.000751224
*RES
1 la_data_in[63] *646:io_la_data_in[63] 22.5982 
*END

*D_NET *232 0.00453766
*CONN
*P la_data_in[64] I
*I *646:io_la_data_in[64] I *D CaravelTopLevel
*CAP
1 la_data_in[64] 0.00140188
2 *646:io_la_data_in[64] 0.00140188
3 *646:io_la_data_in[64] la_data_out[64] 0.00144535
4 *646:io_la_data_in[64] *646:io_la_oenb[62] 0
5 *646:io_la_data_in[64] *646:io_la_oenb[63] 0.000288561
6 *646:io_la_data_in[63] *646:io_la_data_in[64] 0
*RES
1 la_data_in[64] *646:io_la_data_in[64] 22.2698 
*END

*D_NET *233 0.00474871
*CONN
*P la_data_in[65] I
*I *646:io_la_data_in[65] I *D CaravelTopLevel
*CAP
1 la_data_in[65] 0.00145915
2 *646:io_la_data_in[65] 0.00145915
3 *646:io_la_data_in[65] la_data_out[65] 0.000281211
4 *646:io_la_data_in[65] *646:io_la_oenb[64] 0.00154921
*RES
1 la_data_in[65] *646:io_la_data_in[65] 23.5657 
*END

*D_NET *234 0.00480888
*CONN
*P la_data_in[66] I
*I *646:io_la_data_in[66] I *D CaravelTopLevel
*CAP
1 la_data_in[66] 0.00139271
2 *646:io_la_data_in[66] 0.00139271
3 *646:io_la_data_in[66] la_data_out[67] 5.01384e-05
4 *646:io_la_data_in[66] *646:io_la_oenb[64] 3.90154e-05
5 *646:io_la_data_in[66] *646:io_la_oenb[65] 0.00164511
6 *646:io_la_data_in[66] *646:io_la_oenb[66] 0.000289192
*RES
1 la_data_in[66] *646:io_la_data_in[66] 22.6301 
*END

*D_NET *235 0.00485728
*CONN
*P la_data_in[67] I
*I *646:io_la_data_in[67] I *D CaravelTopLevel
*CAP
1 la_data_in[67] 0.00166782
2 *646:io_la_data_in[67] 0.00166782
3 *646:io_la_data_in[67] la_data_out[66] 0.000685528
4 *646:io_la_data_in[67] *646:io_la_data_in[68] 0.000725653
5 *646:io_la_data_in[67] *646:io_la_oenb[66] 0.000110467
*RES
1 la_data_in[67] *646:io_la_data_in[67] 24.6052 
*END

*D_NET *236 0.00569214
*CONN
*P la_data_in[68] I
*I *646:io_la_data_in[68] I *D CaravelTopLevel
*CAP
1 la_data_in[68] 0.00155725
2 *646:io_la_data_in[68] 0.00155725
3 *646:io_la_data_in[68] la_data_out[67] 0.000119928
4 *646:io_la_data_in[68] la_data_out[68] 0.000289486
5 *646:io_la_data_in[68] *646:io_la_oenb[66] 8.55307e-05
6 *646:io_la_data_in[68] *646:io_la_oenb[68] 0.00135703
7 *646:io_la_data_in[67] *646:io_la_data_in[68] 0.000725653
*RES
1 la_data_in[68] *646:io_la_data_in[68] 24.1422 
*END

*D_NET *237 0.00710609
*CONN
*P la_data_in[69] I
*I *646:io_la_data_in[69] I *D CaravelTopLevel
*CAP
1 la_data_in[69] 0.00118089
2 *646:io_la_data_in[69] 0.00118089
3 *646:io_la_data_in[69] la_data_out[68] 0.00138949
4 *646:io_la_data_in[69] la_data_out[69] 0.00205369
5 *646:io_la_data_in[69] *646:io_la_data_in[70] 0.000962006
6 *646:io_la_data_in[69] *646:io_la_oenb[67] 0.000221242
7 *646:io_la_data_in[69] *646:io_la_oenb[68] 0.000117884
*RES
1 la_data_in[69] *646:io_la_data_in[69] 23.2066 
*END

*D_NET *238 0.0103687
*CONN
*P la_data_in[6] I
*I *646:io_la_data_in[6] I *D CaravelTopLevel
*CAP
1 la_data_in[6] 0.00168538
2 *646:io_la_data_in[6] 0.00168538
3 *646:io_la_data_in[6] la_data_out[5] 0.00355354
4 *646:io_la_data_in[6] la_data_out[6] 0.000804191
5 *646:io_la_data_in[6] la_data_out[8] 0
6 *646:io_la_data_in[6] *646:io_la_data_in[8] 0.000644699
7 *646:io_la_data_in[6] *646:io_la_oenb[4] 0.000630779
8 *646:io_la_data_in[4] *646:io_la_data_in[6] 0.00136477
*RES
1 la_data_in[6] *646:io_la_data_in[6] 27.9761 
*END

*D_NET *239 0.00683967
*CONN
*P la_data_in[70] I
*I *646:io_la_data_in[70] I *D CaravelTopLevel
*CAP
1 la_data_in[70] 0.00121735
2 *646:io_la_data_in[70] 0.00121735
3 *646:io_la_data_in[70] la_data_out[69] 0.000289486
4 *646:io_la_data_in[70] *646:io_la_data_in[71] 0.000889987
5 *646:io_la_data_in[70] *646:io_la_oenb[68] 0.000370409
6 *646:io_la_data_in[70] *646:io_la_oenb[69] 0.000387083
7 *646:io_la_data_in[70] *646:io_la_oenb[70] 0.0014369
8 *646:io_la_data_in[70] *646:io_la_oenb[71] 6.90976e-05
9 *646:io_la_data_in[69] *646:io_la_data_in[70] 0.000962006
*RES
1 la_data_in[70] *646:io_la_data_in[70] 24.4292 
*END

*D_NET *240 0.00712804
*CONN
*P la_data_in[71] I
*I *646:io_la_data_in[71] I *D CaravelTopLevel
*CAP
1 la_data_in[71] 0.00148963
2 *646:io_la_data_in[71] 0.00148963
3 *646:io_la_data_in[71] *646:io_la_data_in[72] 0.00117083
4 *646:io_la_data_in[71] *646:io_la_oenb[70] 0.000371289
5 *646:io_la_data_in[71] *646:io_la_oenb[71] 0.00171668
6 *646:io_la_data_in[70] *646:io_la_data_in[71] 0.000889987
*RES
1 la_data_in[71] *646:io_la_data_in[71] 23.567 
*END

*D_NET *241 0.00703707
*CONN
*P la_data_in[72] I
*I *646:io_la_data_in[72] I *D CaravelTopLevel
*CAP
1 la_data_in[72] 0.0014133
2 *646:io_la_data_in[72] 0.0014133
3 *646:io_la_data_in[72] la_data_out[71] 0.000584366
4 *646:io_la_data_in[72] la_data_out[73] 0.000716494
5 *646:io_la_data_in[72] *646:io_la_data_in[73] 0.000495881
6 *646:io_la_data_in[72] *646:io_la_data_in[74] 0
7 *646:io_la_data_in[72] *646:io_la_oenb[70] 0.000507668
8 *646:io_la_data_in[72] *646:io_la_oenb[71] 0.000735218
9 *646:io_la_data_in[71] *646:io_la_data_in[72] 0.00117083
*RES
1 la_data_in[72] *646:io_la_data_in[72] 23.242 
*END

*D_NET *242 0.00809233
*CONN
*P la_data_in[73] I
*I *646:io_la_data_in[73] I *D CaravelTopLevel
*CAP
1 la_data_in[73] 0.00124928
2 *646:io_la_data_in[73] 0.00124928
3 *646:io_la_data_in[73] la_data_out[71] 0.000186783
4 *646:io_la_data_in[73] la_data_out[72] 0.00046943
5 *646:io_la_data_in[73] la_data_out[73] 0.00248209
6 *646:io_la_data_in[73] *646:io_la_oenb[73] 0.00195959
7 *646:io_la_data_in[72] *646:io_la_data_in[73] 0.000495881
*RES
1 la_data_in[73] *646:io_la_data_in[73] 24.4719 
*END

*D_NET *243 0.00625791
*CONN
*P la_data_in[74] I
*I *646:io_la_data_in[74] I *D CaravelTopLevel
*CAP
1 la_data_in[74] 0.00182107
2 *646:io_la_data_in[74] 0.00182107
3 *646:io_la_data_in[74] la_data_out[72] 0
4 *646:io_la_data_in[74] la_data_out[73] 0.000578972
5 *646:io_la_data_in[74] *646:io_la_oenb[74] 0.0020368
6 *646:io_la_data_in[72] *646:io_la_data_in[74] 0
*RES
1 la_data_in[74] *646:io_la_data_in[74] 24.0714 
*END

*D_NET *244 0.00796448
*CONN
*P la_data_in[75] I
*I *646:io_la_data_in[75] I *D CaravelTopLevel
*CAP
1 la_data_in[75] 0.00124773
2 *646:io_la_data_in[75] 0.00124773
3 *646:io_la_data_in[75] la_data_out[73] 0.000370409
4 *646:io_la_data_in[75] la_data_out[74] 0.000941561
5 *646:io_la_data_in[75] la_data_out[76] 0.000873691
6 *646:io_la_data_in[75] *646:io_la_data_in[77] 0.000541523
7 *646:io_la_data_in[75] *646:io_la_oenb[73] 0.000965197
8 *646:io_la_data_in[75] *646:io_la_oenb[74] 0.00120683
9 *646:io_la_data_in[75] *646:io_la_oenb[75] 0.000114453
10 *646:io_la_data_in[75] *646:io_la_oenb[76] 0.000455363
*RES
1 la_data_in[75] *646:io_la_data_in[75] 31.8243 
*END

*D_NET *245 0.00704585
*CONN
*P la_data_in[76] I
*I *646:io_la_data_in[76] I *D CaravelTopLevel
*CAP
1 la_data_in[76] 0.00202032
2 *646:io_la_data_in[76] 0.00202032
3 *646:io_la_data_in[76] la_data_out[75] 0.00197353
4 *646:io_la_data_in[76] la_data_out[76] 0.000240247
5 *646:io_la_data_in[76] *646:io_la_data_in[78] 9.58914e-05
6 *646:io_la_data_in[76] *646:io_la_oenb[75] 0.000695539
*RES
1 la_data_in[76] *646:io_la_data_in[76] 26.9984 
*END

*D_NET *246 0.0053628
*CONN
*P la_data_in[77] I
*I *646:io_la_data_in[77] I *D CaravelTopLevel
*CAP
1 la_data_in[77] 0.00236324
2 *646:io_la_data_in[77] 0.00236324
3 *646:io_la_data_in[77] *646:io_la_data_in[79] 9.47889e-05
4 *646:io_la_data_in[77] *646:io_la_oenb[78] 0
5 *646:io_la_data_in[75] *646:io_la_data_in[77] 0.000541523
*RES
1 la_data_in[77] *646:io_la_data_in[77] 27.8715 
*END

*D_NET *247 0.00679625
*CONN
*P la_data_in[78] I
*I *646:io_la_data_in[78] I *D CaravelTopLevel
*CAP
1 la_data_in[78] 0.0022283
2 *646:io_la_data_in[78] 0.0022283
3 *646:io_la_data_in[78] la_data_out[76] 0.000732626
4 *646:io_la_data_in[78] la_data_out[78] 0.00151113
5 *646:io_la_data_in[78] la_data_out[80] 0
6 *646:io_la_data_in[78] *646:io_la_data_in[80] 0
7 *646:io_la_data_in[76] *646:io_la_data_in[78] 9.58914e-05
*RES
1 la_data_in[78] *646:io_la_data_in[78] 26.6231 
*END

*D_NET *248 0.00671233
*CONN
*P la_data_in[79] I
*I *646:io_la_data_in[79] I *D CaravelTopLevel
*CAP
1 la_data_in[79] 0.00203087
2 *646:io_la_data_in[79] 0.00203087
3 *646:io_la_data_in[79] la_data_out[79] 0.00180226
4 *646:io_la_data_in[79] la_data_out[80] 0.000365312
5 *646:io_la_data_in[79] *646:io_la_data_in[81] 0.000388227
6 *646:io_la_data_in[79] *646:io_la_oenb[76] 0
7 *646:io_la_data_in[79] *646:io_la_oenb[78] 0
8 *646:io_la_data_in[77] *646:io_la_data_in[79] 9.47889e-05
*RES
1 la_data_in[79] *646:io_la_data_in[79] 26.3402 
*END

*D_NET *249 0.0110151
*CONN
*P la_data_in[7] I
*I *646:io_la_data_in[7] I *D CaravelTopLevel
*CAP
1 la_data_in[7] 0.00206237
2 *646:io_la_data_in[7] 0.00206237
3 *646:io_la_data_in[7] la_data_out[4] 0.000127169
4 *646:io_la_data_in[7] la_data_out[5] 5.53434e-05
5 *646:io_la_data_in[7] la_data_out[7] 0
6 *646:io_la_data_in[7] *646:io_la_data_in[8] 0.000832814
7 *646:io_la_data_in[7] *646:io_la_oenb[5] 0.000853457
8 *646:io_la_data_in[7] *646:io_la_oenb[6] 0.00409382
9 *646:io_la_data_in[7] *646:io_la_oenb[7] 0.000389459
10 *646:io_la_data_in[7] *388:13 0.000111104
11 *646:io_la_data_in[7] *505:11 0.000103646
12 *646:io_la_data_in[4] *646:io_la_data_in[7] 0
13 *646:io_la_data_in[5] *646:io_la_data_in[7] 0.0003235
*RES
1 la_data_in[7] *646:io_la_data_in[7] 26.5217 
*END

*D_NET *250 0.00865499
*CONN
*P la_data_in[80] I
*I *646:io_la_data_in[80] I *D CaravelTopLevel
*CAP
1 la_data_in[80] 0.00225709
2 *646:io_la_data_in[80] 0.00225709
3 *646:io_la_data_in[80] la_data_out[78] 0.000463524
4 *646:io_la_data_in[80] la_data_out[82] 0.00043478
5 *646:io_la_data_in[80] *646:io_la_oenb[79] 0.0032425
6 *646:io_la_data_in[78] *646:io_la_data_in[80] 0
*RES
1 la_data_in[80] *646:io_la_data_in[80] 25.2245 
*END

*D_NET *251 0.00723384
*CONN
*P la_data_in[81] I
*I *646:io_la_data_in[81] I *D CaravelTopLevel
*CAP
1 la_data_in[81] 0.00172065
2 *646:io_la_data_in[81] 0.00172065
3 *646:io_la_data_in[81] la_data_out[79] 0.000163035
4 *646:io_la_data_in[81] la_data_out[80] 0.000766992
5 *646:io_la_data_in[81] la_data_out[82] 0.000671108
6 *646:io_la_data_in[81] *646:io_la_data_in[82] 0.00130849
7 *646:io_la_data_in[81] *646:io_la_data_in[83] 0.000389407
8 *646:io_la_data_in[81] *646:io_la_oenb[78] 0
9 *646:io_la_data_in[81] *646:io_la_oenb[80] 0
10 *646:io_la_data_in[81] *646:io_la_oenb[81] 0.000105275
11 *646:io_la_data_in[79] *646:io_la_data_in[81] 0.000388227
*RES
1 la_data_in[81] *646:io_la_data_in[81] 27.8198 
*END

*D_NET *252 0.0100387
*CONN
*P la_data_in[82] I
*I *646:io_la_data_in[82] I *D CaravelTopLevel
*CAP
1 la_data_in[82] 0.00174738
2 *646:io_la_data_in[82] 0.00174738
3 *646:io_la_data_in[82] *646:io_la_data_in[83] 0.00129002
4 *646:io_la_data_in[82] *646:io_la_oenb[79] 0.000483702
5 *646:io_la_data_in[82] *646:io_la_oenb[81] 0.00336052
6 *646:io_la_data_in[82] *646:io_la_oenb[84] 0
7 *646:io_la_data_in[82] *509:13 0.000101211
8 *646:io_la_data_in[81] *646:io_la_data_in[82] 0.00130849
*RES
1 la_data_in[82] *646:io_la_data_in[82] 30.5797 
*END

*D_NET *253 0.0090592
*CONN
*P la_data_in[83] I
*I *646:io_la_data_in[83] I *D CaravelTopLevel
*CAP
1 la_data_in[83] 0.0017909
2 *646:io_la_data_in[83] 0.0017909
3 *646:io_la_data_in[83] la_data_out[82] 0.0029004
4 *646:io_la_data_in[83] la_data_out[83] 0
5 *646:io_la_data_in[83] la_data_out[84] 0
6 *646:io_la_data_in[83] *646:io_la_oenb[80] 0.00010926
7 *646:io_la_data_in[83] *646:io_la_oenb[84] 0.000788308
8 *646:io_la_data_in[83] *646:io_la_oenb[85] 0
9 *646:io_la_data_in[81] *646:io_la_data_in[83] 0.000389407
10 *646:io_la_data_in[82] *646:io_la_data_in[83] 0.00129002
*RES
1 la_data_in[83] *646:io_la_data_in[83] 27.0392 
*END

*D_NET *254 0.00834246
*CONN
*P la_data_in[84] I
*I *646:io_la_data_in[84] I *D CaravelTopLevel
*CAP
1 la_data_in[84] 0.00280817
2 *646:io_la_data_in[84] 0.00280817
3 *646:io_la_data_in[84] la_data_out[83] 0.000600813
4 *646:io_la_data_in[84] la_data_out[85] 0
5 *646:io_la_data_in[84] la_data_out[86] 0
6 *646:io_la_data_in[84] *646:io_la_data_in[86] 0.000182895
7 *646:io_la_data_in[84] *646:io_la_oenb[82] 0.0019424
8 *646:io_la_data_in[84] *646:io_la_oenb[86] 0
*RES
1 la_data_in[84] *646:io_la_data_in[84] 25.8827 
*END

*D_NET *255 0.0110821
*CONN
*P la_data_in[85] I
*I *646:io_la_data_in[85] I *D CaravelTopLevel
*CAP
1 la_data_in[85] 0.00206998
2 *646:io_la_data_in[85] 0.00206998
3 *646:io_la_data_in[85] la_data_out[82] 0
4 *646:io_la_data_in[85] la_data_out[87] 0
5 *646:io_la_data_in[85] *646:io_la_oenb[82] 0.000357608
6 *646:io_la_data_in[85] *646:io_la_oenb[84] 0.0038557
7 *646:io_la_data_in[85] *646:io_la_oenb[86] 0.00131588
8 *646:io_la_data_in[85] *646:io_la_oenb[87] 3.84088e-05
9 *646:io_la_data_in[85] *509:13 0.000890704
10 *646:io_la_data_in[85] *511:13 0.000483871
*RES
1 la_data_in[85] *646:io_la_data_in[85] 29.6346 
*END

*D_NET *256 0.00855484
*CONN
*P la_data_in[86] I
*I *646:io_la_data_in[86] I *D CaravelTopLevel
*CAP
1 la_data_in[86] 0.00212303
2 *646:io_la_data_in[86] 0.00212303
3 *646:io_la_data_in[86] la_data_out[83] 0
4 *646:io_la_data_in[86] la_data_out[85] 0.00021738
5 *646:io_la_data_in[86] la_data_out[86] 0.0039085
6 *646:io_la_data_in[86] *646:io_la_oenb[88] 0
7 *646:io_la_data_in[84] *646:io_la_data_in[86] 0.000182895
*RES
1 la_data_in[86] *646:io_la_data_in[86] 27.6158 
*END

*D_NET *257 0.0114072
*CONN
*P la_data_in[87] I
*I *646:io_la_data_in[87] I *D CaravelTopLevel
*CAP
1 la_data_in[87] 0.00139877
2 *646:io_la_data_in[87] 0.00139877
3 *646:io_la_data_in[87] la_data_out[85] 0.00180297
4 *646:io_la_data_in[87] la_data_out[86] 0.0036153
5 *646:io_la_data_in[87] la_data_out[87] 0.00035782
6 *646:io_la_data_in[87] la_data_out[88] 0.0023772
7 *646:io_la_data_in[87] *646:io_la_data_in[89] 0.000376732
8 *646:io_la_data_in[87] *646:io_la_oenb[86] 0
9 *646:io_la_data_in[87] *646:io_la_oenb[89] 7.96245e-05
*RES
1 la_data_in[87] *646:io_la_data_in[87] 26.8881 
*END

*D_NET *258 0.00902461
*CONN
*P la_data_in[88] I
*I *646:io_la_data_in[88] I *D CaravelTopLevel
*CAP
1 la_data_in[88] 0.00240661
2 *646:io_la_data_in[88] 0.00240661
3 *646:io_la_data_in[88] la_data_out[85] 5.28401e-05
4 *646:io_la_data_in[88] la_data_out[87] 0.00350221
5 *646:io_la_data_in[88] la_data_out[88] 0.000656347
6 *646:io_la_data_in[88] *646:io_la_oenb[90] 0
*RES
1 la_data_in[88] *646:io_la_data_in[88] 27.9761 
*END

*D_NET *259 0.0117381
*CONN
*P la_data_in[89] I
*I *646:io_la_data_in[89] I *D CaravelTopLevel
*CAP
1 la_data_in[89] 0.00165976
2 *646:io_la_data_in[89] 0.00165976
3 *646:io_la_data_in[89] la_data_out[86] 9.55055e-05
4 *646:io_la_data_in[89] la_data_out[89] 0.00424363
5 *646:io_la_data_in[89] *646:io_la_oenb[89] 0.0037027
6 *646:io_la_data_in[87] *646:io_la_data_in[89] 0.000376732
*RES
1 la_data_in[89] *646:io_la_data_in[89] 27.515 
*END

*D_NET *260 0.00886337
*CONN
*P la_data_in[8] I
*I *646:io_la_data_in[8] I *D CaravelTopLevel
*CAP
1 la_data_in[8] 0.0023015
2 *646:io_la_data_in[8] 0.0023015
3 *646:io_la_data_in[8] la_data_out[5] 0.000105101
4 *646:io_la_data_in[8] la_data_out[6] 8.9548e-05
5 *646:io_la_data_in[8] la_data_out[7] 0
6 *646:io_la_data_in[8] la_data_out[9] 0.00210314
7 *646:io_la_data_in[8] *646:io_la_data_in[9] 0.000321942
8 *646:io_la_data_in[8] *646:io_la_oenb[7] 0.00016313
9 *646:io_la_data_in[6] *646:io_la_data_in[8] 0.000644699
10 *646:io_la_data_in[7] *646:io_la_data_in[8] 0.000832814
*RES
1 la_data_in[8] *646:io_la_data_in[8] 29.7771 
*END

*D_NET *261 0.0116319
*CONN
*P la_data_in[90] I
*I *646:io_la_data_in[90] I *D CaravelTopLevel
*CAP
1 la_data_in[90] 0.00169236
2 *646:io_la_data_in[90] 0.00169236
3 *646:io_la_data_in[90] la_data_out[88] 0.00109213
4 *646:io_la_data_in[90] la_data_out[91] 0.00269277
5 *646:io_la_data_in[90] la_data_out[92] 0.000161154
6 *646:io_la_data_in[90] *646:io_la_oenb[89] 0.00430116
7 *646:io_la_data_in[90] *646:io_la_oenb[92] 0
8 *646:io_la_data_in[90] *389:9 0
*RES
1 la_data_in[90] *646:io_la_data_in[90] 28.3364 
*END

*D_NET *262 0.0097107
*CONN
*P la_data_in[91] I
*I *646:io_la_data_in[91] I *D CaravelTopLevel
*CAP
1 la_data_in[91] 0.00248039
2 *646:io_la_data_in[91] 0.00248039
3 *646:io_la_data_in[91] la_data_out[89] 0.000814405
4 *646:io_la_data_in[91] la_data_out[92] 0.00155319
5 *646:io_la_data_in[91] *646:io_la_data_in[92] 0.000530233
6 *646:io_la_data_in[91] *646:io_la_data_in[93] 0.00185209
*RES
1 la_data_in[91] *646:io_la_data_in[91] 27.1799 
*END

*D_NET *263 0.00964389
*CONN
*P la_data_in[92] I
*I *646:io_la_data_in[92] I *D CaravelTopLevel
*CAP
1 la_data_in[92] 0.00256054
2 *646:io_la_data_in[92] 0.00256054
3 *646:io_la_data_in[92] *646:io_la_data_in[93] 0.00171609
4 *646:io_la_data_in[92] *646:io_la_data_in[94] 0.00195182
5 *646:io_la_data_in[92] *646:io_la_data_in[95] 0.000324656
6 *646:io_la_data_in[92] *394:9 0
7 *646:io_la_data_in[91] *646:io_la_data_in[92] 0.000530233
*RES
1 la_data_in[92] *646:io_la_data_in[92] 29.1454 
*END

*D_NET *264 0.0118038
*CONN
*P la_data_in[93] I
*I *646:io_la_data_in[93] I *D CaravelTopLevel
*CAP
1 la_data_in[93] 0.0020615
2 *646:io_la_data_in[93] 0.0020615
3 *646:io_la_data_in[93] la_data_out[92] 8.72049e-05
4 *646:io_la_data_in[93] la_data_out[93] 0
5 *646:io_la_data_in[93] la_data_out[94] 0.00205792
6 *646:io_la_data_in[93] la_data_out[96] 2.12928e-05
7 *646:io_la_data_in[93] *646:io_la_data_in[95] 0.00194622
8 *646:io_la_data_in[93] *646:io_la_data_in[96] 0
9 *646:io_la_data_in[91] *646:io_la_data_in[93] 0.00185209
10 *646:io_la_data_in[92] *646:io_la_data_in[93] 0.00171609
*RES
1 la_data_in[93] *646:io_la_data_in[93] 29.2883 
*END

*D_NET *265 0.0122252
*CONN
*P la_data_in[94] I
*I *646:io_la_data_in[94] I *D CaravelTopLevel
*CAP
1 la_data_in[94] 0.00211459
2 *646:io_la_data_in[94] 0.00211459
3 *646:io_la_data_in[94] la_data_out[97] 0.000219729
4 *646:io_la_data_in[94] *646:io_la_data_in[95] 0.00170384
5 *646:io_la_data_in[94] *646:io_la_oenb[94] 0.00412063
6 *646:io_la_data_in[92] *646:io_la_data_in[94] 0.00195182
*RES
1 la_data_in[94] *646:io_la_data_in[94] 32.1811 
*END

*D_NET *266 0.0122183
*CONN
*P la_data_in[95] I
*I *646:io_la_data_in[95] I *D CaravelTopLevel
*CAP
1 la_data_in[95] 0.00230056
2 *646:io_la_data_in[95] 0.00230056
3 *646:io_la_data_in[95] la_data_out[94] 5.97544e-05
4 *646:io_la_data_in[95] la_data_out[96] 0.000154403
5 *646:io_la_data_in[95] *646:io_la_oenb[94] 0.000522687
6 *646:io_la_data_in[95] *646:io_la_oenb[96] 0.00290564
7 *646:io_la_data_in[95] *646:io_la_oenb[98] 0
8 *646:io_la_data_in[92] *646:io_la_data_in[95] 0.000324656
9 *646:io_la_data_in[93] *646:io_la_data_in[95] 0.00194622
10 *646:io_la_data_in[94] *646:io_la_data_in[95] 0.00170384
*RES
1 la_data_in[95] *646:io_la_data_in[95] 29.7226 
*END

*D_NET *267 0.0121689
*CONN
*P la_data_in[96] I
*I *646:io_la_data_in[96] I *D CaravelTopLevel
*CAP
1 la_data_in[96] 0.0032699
2 *646:io_la_data_in[96] 0.0032699
3 *646:io_la_data_in[96] la_data_out[97] 0.00328103
4 *646:io_la_data_in[96] *268:11 0.000125959
5 *646:io_la_data_in[96] *394:11 0.00177501
6 *646:io_la_data_in[96] *525:15 0.000447141
7 *646:io_la_data_in[93] *646:io_la_data_in[96] 0
*RES
1 la_data_in[96] *646:io_la_data_in[96] 31.9863 
*END

*D_NET *268 0.0127353
*CONN
*P la_data_in[97] I
*I *646:io_la_data_in[97] I *D CaravelTopLevel
*CAP
1 la_data_in[97] 0.000122029
2 *646:io_la_data_in[97] 0.000642682
3 *268:11 0.00209649
4 *268:9 0.00157584
5 *646:io_la_data_in[97] *520:7 0.00018037
6 *268:11 la_data_out[97] 0.00110915
7 *268:11 *646:io_la_oenb[95] 0
8 *268:11 *394:11 0.000493642
9 *268:11 *522:13 0.00191625
10 *268:11 *524:11 0.0044729
11 *646:io_la_data_in[96] *268:11 0.000125959
*RES
1 la_data_in[97] *268:9 5.66071 
2 *268:9 *268:11 53.9286 
3 *268:11 *646:io_la_data_in[97] 17.7232 
*END

*D_NET *269 0.0109682
*CONN
*P la_data_in[98] I
*I *646:io_la_data_in[98] I *D CaravelTopLevel
*CAP
1 la_data_in[98] 0.00211872
2 *646:io_la_data_in[98] 0.00211872
3 *646:io_la_data_in[98] la_data_out[97] 0.000526873
4 *646:io_la_data_in[98] *646:io_la_data_in[99] 0.00428618
5 *646:io_la_data_in[98] *646:io_la_oenb[94] 0.000473929
6 *646:io_la_data_in[98] *646:io_la_oenb[97] 0
7 *646:io_la_data_in[100] *646:io_la_data_in[98] 0.00144373
*RES
1 la_data_in[98] *646:io_la_data_in[98] 28.9059 
*END

*D_NET *270 0.0141184
*CONN
*P la_data_in[99] I
*I *646:io_la_data_in[99] I *D CaravelTopLevel
*CAP
1 la_data_in[99] 0.0017489
2 *646:io_la_data_in[99] 0.0017489
3 *646:io_la_data_in[99] la_data_out[97] 0.00021738
4 *646:io_la_data_in[99] la_data_out[99] 0.00546308
5 *646:io_la_data_in[99] *646:io_la_oenb[102] 2.66242e-05
6 *646:io_la_data_in[100] *646:io_la_data_in[99] 0.000627294
7 *646:io_la_data_in[98] *646:io_la_data_in[99] 0.00428618
*RES
1 la_data_in[99] *646:io_la_data_in[99] 29.6553 
*END

*D_NET *271 0.00861626
*CONN
*P la_data_in[9] I
*I *646:io_la_data_in[9] I *D CaravelTopLevel
*CAP
1 la_data_in[9] 0.00202446
2 *646:io_la_data_in[9] 0.00202446
3 *646:io_la_data_in[9] la_data_out[10] 0
4 *646:io_la_data_in[9] la_data_out[6] 5.23607e-05
5 *646:io_la_data_in[9] la_data_out[7] 0.000436956
6 *646:io_la_data_in[9] la_data_out[9] 0.00375608
7 *646:io_la_data_in[9] *646:io_la_oenb[9] 0
8 *646:io_la_data_in[11] *646:io_la_data_in[9] 0
9 *646:io_la_data_in[8] *646:io_la_data_in[9] 0.000321942
*RES
1 la_data_in[9] *646:io_la_data_in[9] 27.3996 
*END

*D_NET *272 0.00884072
*CONN
*P la_data_out[0] O
*I *646:io_la_data_out[0] O *D CaravelTopLevel
*CAP
1 la_data_out[0] 0.00317712
2 *646:io_la_data_out[0] 0.00317712
3 la_data_out[0] la_data_out[2] 0.000321942
4 la_data_out[0] la_data_out[3] 0.000351283
5 la_data_out[0] wbs_dat_o[29] 0.000330431
6 la_data_out[0] *646:io_la_oenb[2] 0.0012556
7 la_data_out[0] *646:io_wbs_adr_i[30] 0
8 *646:io_la_data_in[0] la_data_out[0] 0
9 *646:io_la_data_in[2] la_data_out[0] 0.000227223
*RES
1 *646:io_la_data_out[0] la_data_out[0] 28.7184 
*END

*D_NET *273 0.00808945
*CONN
*P la_data_out[100] O
*I *646:io_la_data_out[100] O *D CaravelTopLevel
*CAP
1 la_data_out[100] 0.000549924
2 *646:io_la_data_out[100] 0.000403053
3 *273:11 0.00347517
4 *273:9 0.0033283
5 *273:9 *646:io_la_oenb[96] 0
6 *646:io_la_data_in[100] la_data_out[100] 0
7 *646:io_la_data_in[100] *273:11 0.000249455
8 *646:io_la_data_in[104] la_data_out[100] 8.3551e-05
*RES
1 *646:io_la_data_out[100] *273:9 12.6339 
2 *273:9 *273:11 53.9286 
3 *273:11 la_data_out[100] 12.4107 
*END

*D_NET *274 0.0166695
*CONN
*P la_data_out[101] O
*I *646:io_la_data_out[101] O *D CaravelTopLevel
*CAP
1 la_data_out[101] 0.00209117
2 *646:io_la_data_out[101] 0.00209117
3 la_data_out[101] *646:io_la_oenb[101] 0.00554886
4 la_data_out[101] *403:11 0.000456828
5 la_data_out[101] *404:15 0.000254013
6 la_data_out[101] *525:15 0.000111431
7 la_data_out[101] *526:11 0.000240316
8 *646:io_la_data_in[101] la_data_out[101] 0.00576388
9 *646:io_la_data_in[104] la_data_out[101] 0.000111846
*RES
1 *646:io_la_data_out[101] la_data_out[101] 32.3881 
*END

*D_NET *275 0.0156456
*CONN
*P la_data_out[102] O
*I *646:io_la_data_out[102] O *D CaravelTopLevel
*CAP
1 la_data_out[102] 0.000126203
2 *646:io_la_data_out[102] 0.00073618
3 *275:11 0.00128007
4 *275:9 0.00189004
5 *275:9 *525:13 2.66242e-05
6 *275:11 *646:io_la_oenb[101] 0.00143107
7 *275:11 *277:11 0.00302788
8 *275:11 *401:9 0
9 *275:11 *403:11 0.00560594
10 *275:11 *526:11 0.00141342
11 *646:io_la_data_in[105] *275:11 0.0001082
*RES
1 *646:io_la_data_out[102] *275:9 18.6161 
2 *275:9 *275:11 58.0357 
3 *275:11 la_data_out[102] 5.66071 
*END

*D_NET *276 0.014874
*CONN
*P la_data_out[103] O
*I *646:io_la_data_out[103] O *D CaravelTopLevel
*CAP
1 la_data_out[103] 0.00232991
2 *646:io_la_data_out[103] 0.00232991
3 la_data_out[103] la_data_out[105] 0.00336151
4 la_data_out[103] *646:io_la_oenb[103] 0
5 la_data_out[103] *280:9 6.04681e-05
6 *646:io_la_data_in[100] la_data_out[103] 0.000587034
7 *646:io_la_data_in[103] la_data_out[103] 0.00585596
8 *646:io_la_data_in[104] la_data_out[103] 0.000349165
*RES
1 *646:io_la_data_out[103] la_data_out[103] 30.7867 
*END

*D_NET *277 0.0126066
*CONN
*P la_data_out[104] O
*I *646:io_la_data_out[104] O *D CaravelTopLevel
*CAP
1 la_data_out[104] 0.000184721
2 *646:io_la_data_out[104] 0.000762833
3 *277:11 0.00230409
4 *277:9 0.0028822
5 *277:9 *401:7 4.53514e-05
6 *277:11 la_data_out[106] 0.000120158
7 *277:11 *646:io_la_oenb[101] 0.000807204
8 *277:11 *646:io_la_oenb[106] 0.00101777
9 *277:11 *280:11 0.000317614
10 *277:11 *403:11 0.000292917
11 *277:11 *404:11 0
12 *277:11 *408:11 0.000843855
13 *275:11 *277:11 0.00302788
*RES
1 *646:io_la_data_out[104] *277:9 18.9196 
2 *277:9 *277:11 57.625 
3 *277:11 la_data_out[104] 6.48214 
*END

*D_NET *278 0.0143462
*CONN
*P la_data_out[105] O
*I *646:io_la_data_out[105] O *D CaravelTopLevel
*CAP
1 la_data_out[105] 0.00359554
2 *646:io_la_data_out[105] 0.00359554
3 la_data_out[105] la_data_out[108] 0
4 la_data_out[105] la_data_out[109] 0
5 la_data_out[105] *405:15 0.000364965
6 la_data_out[105] *406:13 0.00159846
7 la_data_out[103] la_data_out[105] 0.00336151
8 *646:io_la_data_in[104] la_data_out[105] 0.000454447
9 *646:io_la_data_in[105] la_data_out[105] 0.000487183
10 *646:io_la_data_in[106] la_data_out[105] 0.000106315
11 *646:io_la_data_in[108] la_data_out[105] 0
12 *152:13 la_data_out[105] 0.00067099
13 *154:11 la_data_out[105] 0.000111279
*RES
1 *646:io_la_data_out[105] la_data_out[105] 30.2031 
*END

*D_NET *279 0.0180765
*CONN
*P la_data_out[106] O
*I *646:io_la_data_out[106] O *D CaravelTopLevel
*CAP
1 la_data_out[106] 0.00225921
2 *646:io_la_data_out[106] 0.00225921
3 la_data_out[106] *646:io_la_oenb[106] 0.00646012
4 la_data_out[106] *280:11 0.000950185
5 *646:io_la_data_in[106] la_data_out[106] 0.00602757
6 *277:11 la_data_out[106] 0.000120158
*RES
1 *646:io_la_data_out[106] la_data_out[106] 32.9359 
*END

*D_NET *280 0.0134477
*CONN
*P la_data_out[107] O
*I *646:io_la_data_out[107] O *D CaravelTopLevel
*CAP
1 la_data_out[107] 0.000124903
2 *646:io_la_data_out[107] 0.000712069
3 *280:11 0.0021682
4 *280:9 0.00275536
5 *280:11 *404:11 5.21821e-05
6 *280:11 *408:11 0.00613087
7 la_data_out[103] *280:9 6.04681e-05
8 la_data_out[106] *280:11 0.000950185
9 *646:io_la_data_in[111] *280:11 0.000175894
10 *277:11 *280:11 0.000317614
*RES
1 *646:io_la_data_out[107] *280:9 18.3125 
2 *280:9 *280:11 62.9643 
3 *280:11 la_data_out[107] 5.66071 
*END

*D_NET *281 0.0164102
*CONN
*P la_data_out[108] O
*I *646:io_la_data_out[108] O *D CaravelTopLevel
*CAP
1 la_data_out[108] 0.00213229
2 *646:io_la_data_out[108] 0.00213229
3 la_data_out[108] la_data_out[109] 0.00543049
4 la_data_out[108] la_data_out[112] 9.70965e-05
5 la_data_out[108] *646:io_la_oenb[108] 0
6 la_data_out[108] *646:io_la_oenb[112] 0.000115747
7 la_data_out[105] la_data_out[108] 0
8 *646:io_la_data_in[108] la_data_out[108] 0.00650226
*RES
1 *646:io_la_data_out[108] la_data_out[108] 31.7236 
*END

*D_NET *282 0.0124151
*CONN
*P la_data_out[109] O
*I *646:io_la_data_out[109] O *D CaravelTopLevel
*CAP
1 la_data_out[109] 0.00344937
2 *646:io_la_data_out[109] 0.00344937
3 la_data_out[109] la_data_out[112] 0
4 la_data_out[109] *646:io_la_oenb[113] 8.58715e-05
5 la_data_out[105] la_data_out[109] 0
6 la_data_out[108] la_data_out[109] 0.00543049
*RES
1 *646:io_la_data_out[109] la_data_out[109] 31.8677 
*END

*D_NET *283 0.0084138
*CONN
*P la_data_out[10] O
*I *646:io_la_data_out[10] O *D CaravelTopLevel
*CAP
1 la_data_out[10] 0.00177828
2 *646:io_la_data_out[10] 0.00177828
3 la_data_out[10] la_data_out[12] 0.000637422
4 la_data_out[10] *646:io_la_oenb[9] 0.00111803
5 *646:io_la_data_in[11] la_data_out[10] 0.00297734
6 *646:io_la_data_in[12] la_data_out[10] 0.00012445
7 *646:io_la_data_in[9] la_data_out[10] 0
*RES
1 *646:io_la_data_out[10] la_data_out[10] 27.1834 
*END

*D_NET *284 0.013478
*CONN
*P la_data_out[110] O
*I *646:io_la_data_out[110] O *D CaravelTopLevel
*CAP
1 la_data_out[110] 0.00361911
2 *646:io_la_data_out[110] 0.00361911
3 la_data_out[110] la_data_out[111] 0.00569504
4 la_data_out[110] *646:io_la_oenb[114] 0
5 *646:io_la_data_in[110] la_data_out[110] 0.000544724
*RES
1 *646:io_la_data_out[110] la_data_out[110] 32.5326 
*END

*D_NET *285 0.0180358
*CONN
*P la_data_out[111] O
*I *646:io_la_data_out[111] O *D CaravelTopLevel
*CAP
1 la_data_out[111] 0.00233952
2 *646:io_la_data_out[111] 0.00233952
3 la_data_out[111] *646:io_la_oenb[115] 0
4 la_data_out[110] la_data_out[111] 0.00569504
5 *646:io_la_data_in[110] la_data_out[111] 0.00139584
6 *646:io_la_data_in[113] la_data_out[111] 0.00475861
7 *646:io_la_data_in[115] la_data_out[111] 0.00150731
8 *646:io_la_data_in[116] la_data_out[111] 0
*RES
1 *646:io_la_data_out[111] la_data_out[111] 32.1416 
*END

*D_NET *286 0.0135637
*CONN
*P la_data_out[112] O
*I *646:io_la_data_out[112] O *D CaravelTopLevel
*CAP
1 la_data_out[112] 0.00299674
2 *646:io_la_data_out[112] 0.00299674
3 la_data_out[112] *646:io_la_oenb[114] 0.00373339
4 la_data_out[112] *646:io_la_oenb[116] 0
5 la_data_out[108] la_data_out[112] 9.70965e-05
6 la_data_out[109] la_data_out[112] 0
7 *646:io_la_data_in[108] la_data_out[112] 1.48677e-06
8 *646:io_la_data_in[110] la_data_out[112] 0.00181795
9 *646:io_la_data_in[113] la_data_out[112] 0.000104362
10 *646:io_la_data_in[114] la_data_out[112] 0.00175854
11 *646:io_la_data_in[117] la_data_out[112] 5.73464e-05
*RES
1 *646:io_la_data_out[112] la_data_out[112] 31.134 
*END

*D_NET *287 0.0131602
*CONN
*P la_data_out[113] O
*I *646:io_la_data_out[113] O *D CaravelTopLevel
*CAP
1 la_data_out[113] 0.000322569
2 *646:io_la_data_out[113] 0.000480975
3 *287:11 0.00263225
4 *287:9 0.00279065
5 la_data_out[113] *415:9 0
6 *287:9 *646:io_la_oenb[113] 0
7 *287:11 *414:13 0.000137463
8 *287:11 *415:11 0.0067963
*RES
1 *646:io_la_data_out[113] *287:9 13.8661 
2 *287:9 *287:11 67.4821 
3 *287:11 la_data_out[113] 10.0357 
*END

*D_NET *288 0.0179803
*CONN
*P la_data_out[114] O
*I *646:io_la_data_out[114] O *D CaravelTopLevel
*CAP
1 la_data_out[114] 0.000219051
2 *646:io_la_data_out[114] 0.000367312
3 *288:11 0.00130191
4 *288:9 0.00145017
5 *288:11 *289:11 8.87196e-05
6 *288:11 *291:11 0.00266146
7 *288:11 *414:13 0.00449296
8 *288:11 *415:11 0.00601061
9 *288:11 *420:11 0.000709474
10 *646:io_la_data_in[110] *288:9 0.00067861
*RES
1 *646:io_la_data_out[114] *288:9 14.4732 
2 *288:9 *288:11 69.125 
3 *288:11 la_data_out[114] 8.35714 
*END

*D_NET *289 0.0169887
*CONN
*P la_data_out[115] O
*I *646:io_la_data_out[115] O *D CaravelTopLevel
*CAP
1 la_data_out[115] 0.000357501
2 *646:io_la_data_out[115] 0.000511202
3 *289:11 0.00170817
4 *289:9 0.00186188
5 *289:11 *291:11 0.0041408
6 *289:11 *413:11 0.00118551
7 *289:11 *414:13 0.00310082
8 *289:11 *419:13 0.00357521
9 *646:io_la_data_in[115] la_data_out[115] 0
10 *158:9 *289:11 0.000458901
11 *288:11 *289:11 8.87196e-05
*RES
1 *646:io_la_data_out[115] *289:9 13.8482 
2 *289:9 *289:11 69.9464 
3 *289:11 la_data_out[115] 9.92857 
*END

*D_NET *290 0.0181436
*CONN
*P la_data_out[116] O
*I *646:io_la_data_out[116] O *D CaravelTopLevel
*CAP
1 la_data_out[116] 0.00252996
2 *646:io_la_data_out[116] 0.00252996
3 *646:io_la_data_in[116] la_data_out[116] 0.00738664
4 *646:io_la_data_in[118] la_data_out[116] 0.00523558
5 *646:io_la_data_in[120] la_data_out[116] 0.000199214
6 *646:io_la_data_in[121] la_data_out[116] 0.00026221
*RES
1 *646:io_la_data_out[116] la_data_out[116] 33.1649 
*END

*D_NET *291 0.0166511
*CONN
*P la_data_out[117] O
*I *646:io_la_data_out[117] O *D CaravelTopLevel
*CAP
1 la_data_out[117] 0.000280739
2 *646:io_la_data_out[117] 0.000544337
3 *291:11 0.00138586
4 *291:9 0.00164946
5 *291:11 *295:11 0.00302567
6 *291:11 *419:13 0.00191196
7 *291:11 *420:11 0.00105078
8 *646:io_la_data_in[113] *291:9 0
9 *646:io_la_data_in[117] la_data_out[117] 0
10 *288:11 *291:11 0.00266146
11 *289:11 *291:11 0.0041408
*RES
1 *646:io_la_data_out[117] *291:9 14.3661 
2 *291:9 *291:11 71.5893 
3 *291:11 la_data_out[117] 9.53571 
*END

*D_NET *292 0.0135897
*CONN
*P la_data_out[118] O
*I *646:io_la_data_out[118] O *D CaravelTopLevel
*CAP
1 la_data_out[118] 0.000143641
2 *646:io_la_data_out[118] 0.000624299
3 *292:11 0.00263347
4 *292:9 0.00311413
5 *292:9 *646:io_la_oenb[118] 0
6 *292:11 *295:11 0.000327815
7 *292:11 *419:13 0.00663622
8 *292:11 *425:9 0.000110089
*RES
1 *646:io_la_data_out[118] *292:9 15.6875 
2 *292:9 *292:11 73.2321 
3 *292:11 la_data_out[118] 7.14286 
*END

*D_NET *293 0.0153497
*CONN
*P la_data_out[119] O
*I *646:io_la_data_out[119] O *D CaravelTopLevel
*CAP
1 la_data_out[119] 0.0034131
2 *646:io_la_data_out[119] 0.0034131
3 la_data_out[119] la_data_out[121] 0.000344702
4 la_data_out[119] la_data_out[123] 0.00172874
5 la_data_out[119] *646:io_la_oenb[114] 0.000385282
6 *646:io_la_data_in[118] la_data_out[119] 0.00606483
*RES
1 *646:io_la_data_out[119] la_data_out[119] 33.7414 
*END

*D_NET *294 0.00859147
*CONN
*P la_data_out[11] O
*I *646:io_la_data_out[11] O *D CaravelTopLevel
*CAP
1 la_data_out[11] 0.00159982
2 *646:io_la_data_out[11] 0.00159982
3 la_data_out[11] la_data_out[13] 0
4 la_data_out[11] *646:io_la_oenb[10] 0.00155873
5 la_data_out[11] *646:io_la_oenb[11] 0.000358333
6 la_data_out[11] *646:io_la_oenb[13] 0.000119914
7 la_data_out[11] *646:io_la_oenb[9] 0.000493006
8 *646:io_la_data_in[12] la_data_out[11] 0.00286185
*RES
1 *646:io_la_data_out[11] la_data_out[11] 29.249 
*END

*D_NET *295 0.0155991
*CONN
*P la_data_out[120] O
*I *646:io_la_data_out[120] O *D CaravelTopLevel
*CAP
1 la_data_out[120] 0.0001997
2 *646:io_la_data_out[120] 0.000498442
3 *295:11 0.00208695
4 *295:9 0.0023857
5 la_data_out[120] *646:io_la_oenb[125] 0
6 la_data_out[120] *300:9 0
7 *295:11 *419:13 0.000245749
8 *295:11 *420:11 0.00515751
9 *295:11 *423:13 0.00167156
10 *295:11 *425:9 0
11 *646:io_la_data_in[120] *295:9 0
12 *291:11 *295:11 0.00302567
13 *292:11 *295:11 0.000327815
*RES
1 *646:io_la_data_out[120] *295:9 13.2411 
2 *295:9 *295:11 77.3393 
3 *295:11 la_data_out[120] 8.35714 
*END

*D_NET *296 0.0208188
*CONN
*P la_data_out[121] O
*I *646:io_la_data_out[121] O *D CaravelTopLevel
*CAP
1 la_data_out[121] 0.00215531
2 *646:io_la_data_out[121] 0.00215531
3 la_data_out[121] la_data_out[123] 0.00525068
4 la_data_out[121] la_data_out[124] 0.000227223
5 la_data_out[121] la_data_out[126] 0
6 la_data_out[121] *646:io_la_oenb[121] 0
7 la_data_out[119] la_data_out[121] 0.000344702
8 *646:io_la_data_in[118] la_data_out[121] 0.00271186
9 *646:io_la_data_in[121] la_data_out[121] 0.00797367
*RES
1 *646:io_la_data_out[121] la_data_out[121] 34.1018 
*END

*D_NET *297 0.0209834
*CONN
*P la_data_out[122] O
*I *646:io_la_data_out[122] O *D CaravelTopLevel
*CAP
1 la_data_out[122] 0.00268787
2 *646:io_la_data_out[122] 0.00268787
3 la_data_out[122] *646:io_la_oenb[121] 0.00736963
4 la_data_out[122] *646:io_la_oenb[127] 0
5 la_data_out[122] *302:9 0
6 *646:io_la_data_in[122] la_data_out[122] 0.00800168
7 *646:io_la_data_in[125] la_data_out[122] 0.000236355
*RES
1 *646:io_la_data_out[122] la_data_out[122] 36.5664 
*END

*D_NET *298 0.0174148
*CONN
*P la_data_out[123] O
*I *646:io_la_data_out[123] O *D CaravelTopLevel
*CAP
1 la_data_out[123] 0.00361376
2 *646:io_la_data_out[123] 0.00361376
3 la_data_out[123] la_data_out[124] 6.63044e-05
4 la_data_out[123] *646:io_la_oenb[123] 0
5 la_data_out[123] *646:io_la_oenb[126] 0.000105442
6 la_data_out[123] *530:9 0.000107181
7 la_data_out[119] la_data_out[123] 0.00172874
8 la_data_out[121] la_data_out[123] 0.00525068
9 *646:io_la_data_in[127] la_data_out[123] 0.00292896
*RES
1 *646:io_la_data_out[123] la_data_out[123] 34.4621 
*END

*D_NET *299 0.0203272
*CONN
*P la_data_out[124] O
*I *646:io_la_data_out[124] O *D CaravelTopLevel
*CAP
1 la_data_out[124] 0.00251102
2 *646:io_la_data_out[124] 0.00251102
3 la_data_out[124] *646:io_la_oenb[124] 0.000227223
4 la_data_out[124] *646:io_la_oenb[126] 0.00505205
5 la_data_out[121] la_data_out[124] 0.000227223
6 la_data_out[123] la_data_out[124] 6.63044e-05
7 *646:io_la_data_in[120] la_data_out[124] 0.00125414
8 *646:io_la_data_in[121] la_data_out[124] 0.000971143
9 *646:io_la_data_in[123] la_data_out[124] 0.00651991
10 *646:io_la_data_in[124] la_data_out[124] 0.000987118
*RES
1 *646:io_la_data_out[124] la_data_out[124] 34.6783 
*END

*D_NET *300 0.0205782
*CONN
*P la_data_out[125] O
*I *646:io_la_data_out[125] O *D CaravelTopLevel
*CAP
1 la_data_out[125] 0.000104457
2 *646:io_la_data_out[125] 0.000744702
3 *300:11 0.00189842
4 *300:9 0.00253866
5 *300:11 la_data_out[126] 0.00163611
6 *300:11 *426:11 0.00603832
7 la_data_out[120] *300:9 0
8 *646:io_la_data_in[120] *300:9 0
9 *173:11 *300:11 0.00761753
*RES
1 *646:io_la_data_out[125] *300:9 17.7946 
2 *300:9 *300:11 83.0893 
3 *300:11 la_data_out[125] 5.66071 
*END

*D_NET *301 0.0176912
*CONN
*P la_data_out[126] O
*I *646:io_la_data_out[126] O *D CaravelTopLevel
*CAP
1 la_data_out[126] 0.00581623
2 *646:io_la_data_out[126] 0.00581623
3 la_data_out[126] *426:11 0.000898069
4 la_data_out[121] la_data_out[126] 0
5 *646:io_la_data_in[121] la_data_out[126] 0
6 *173:11 la_data_out[126] 0.00352461
7 *300:11 la_data_out[126] 0.00163611
*RES
1 *646:io_la_data_out[126] la_data_out[126] 37.6075 
*END

*D_NET *302 0.0168293
*CONN
*P la_data_out[127] O
*I *646:io_la_data_out[127] O *D CaravelTopLevel
*CAP
1 la_data_out[127] 0.000584693
2 *646:io_la_data_out[127] 0.000545335
3 *302:21 0.00224772
4 *302:11 0.00324304
5 *302:9 0.00212535
6 *302:11 *428:17 0.0033218
7 *302:11 *528:11 0.000484099
8 *302:11 *530:11 0.00427728
9 *302:21 *428:11 0
10 la_data_out[122] *302:9 0
11 *646:io_la_data_in[122] *302:9 0
*RES
1 *646:io_la_data_out[127] *302:9 14.3661 
2 *302:9 *302:11 58.8571 
3 *302:11 *302:21 45.5714 
4 *302:21 la_data_out[127] 11.1429 
*END

*D_NET *303 0.00918086
*CONN
*P la_data_out[12] O
*I *646:io_la_data_out[12] O *D CaravelTopLevel
*CAP
1 la_data_out[12] 0.0015161
2 *646:io_la_data_out[12] 0.0015161
3 la_data_out[12] *646:io_la_oenb[12] 0.000331386
4 la_data_out[12] *646:io_la_oenb[13] 0.00160901
5 la_data_out[10] la_data_out[12] 0.000637422
6 *646:io_la_data_in[11] la_data_out[12] 0.000592969
7 *646:io_la_data_in[12] la_data_out[12] 0.000231359
8 *646:io_la_data_in[13] la_data_out[12] 0.00274651
*RES
1 *646:io_la_data_out[12] la_data_out[12] 26.823 
*END

*D_NET *304 0.00619507
*CONN
*P la_data_out[13] O
*I *646:io_la_data_out[13] O *D CaravelTopLevel
*CAP
1 la_data_out[13] 0.00292816
2 *646:io_la_data_out[13] 0.00292816
3 la_data_out[13] *646:io_la_oenb[13] 0
4 la_data_out[11] la_data_out[13] 0
5 *646:io_la_data_in[11] la_data_out[13] 0.000338741
*RES
1 *646:io_la_data_out[13] la_data_out[13] 25.2966 
*END

*D_NET *305 0.007186
*CONN
*P la_data_out[14] O
*I *646:io_la_data_out[14] O *D CaravelTopLevel
*CAP
1 la_data_out[14] 0.0020688
2 *646:io_la_data_out[14] 0.0020688
3 la_data_out[14] la_data_out[16] 0
4 la_data_out[14] *646:io_la_oenb[12] 0.000334469
5 la_data_out[14] *646:io_la_oenb[16] 0
6 *646:io_la_data_in[13] la_data_out[14] 4.48889e-05
7 *646:io_la_data_in[15] la_data_out[14] 0.00266905
*RES
1 *646:io_la_data_out[14] la_data_out[14] 29.4799 
*END

*D_NET *306 0.00687791
*CONN
*P la_data_out[15] O
*I *646:io_la_data_out[15] O *D CaravelTopLevel
*CAP
1 la_data_out[15] 0.0015455
2 *646:io_la_data_out[15] 0.0015455
3 la_data_out[15] la_data_out[16] 0.00018673
4 la_data_out[15] la_data_out[17] 0.000130538
5 la_data_out[15] *646:io_la_oenb[14] 0.00138802
6 *646:io_la_data_in[15] la_data_out[15] 0.00173719
7 *646:io_la_data_in[17] la_data_out[15] 0.000344434
*RES
1 *646:io_la_data_out[15] la_data_out[15] 25.9078 
*END

*D_NET *307 0.00893742
*CONN
*P la_data_out[16] O
*I *646:io_la_data_out[16] O *D CaravelTopLevel
*CAP
1 la_data_out[16] 0.001251
2 *646:io_la_data_out[16] 0.001251
3 la_data_out[16] *646:io_la_oenb[14] 0.000721383
4 la_data_out[16] *646:io_la_oenb[15] 0.000344434
5 la_data_out[16] *646:io_la_oenb[16] 0.00289311
6 la_data_out[14] la_data_out[16] 0
7 la_data_out[15] la_data_out[16] 0.00018673
8 *646:io_la_data_in[17] la_data_out[16] 0.00228976
*RES
1 *646:io_la_data_out[16] la_data_out[16] 26.1024 
*END

*D_NET *308 0.00796602
*CONN
*P la_data_out[17] O
*I *646:io_la_data_out[17] O *D CaravelTopLevel
*CAP
1 la_data_out[17] 0.0015239
2 *646:io_la_data_out[17] 0.0015239
3 la_data_out[17] la_data_out[18] 0.00157941
4 la_data_out[17] la_data_out[19] 0
5 la_data_out[17] *646:io_la_oenb[17] 6.05116e-05
6 la_data_out[17] *646:io_la_oenb[18] 0.000115213
7 la_data_out[15] la_data_out[17] 0.000130538
8 *646:io_la_data_in[17] la_data_out[17] 0.00280265
9 *646:io_la_data_in[18] la_data_out[17] 0.000229894
10 *646:io_la_data_in[19] la_data_out[17] 0
*RES
1 *646:io_la_data_out[17] la_data_out[17] 25.8862 
*END

*D_NET *309 0.0069354
*CONN
*P la_data_out[18] O
*I *646:io_la_data_out[18] O *D CaravelTopLevel
*CAP
1 la_data_out[18] 0.0016271
2 *646:io_la_data_out[18] 0.0016271
3 la_data_out[18] la_data_out[19] 0.000523659
4 la_data_out[18] la_data_out[20] 0
5 la_data_out[18] *646:io_la_oenb[18] 4.16907e-05
6 la_data_out[17] la_data_out[18] 0.00157941
7 *646:io_la_data_in[18] la_data_out[18] 0.00151347
8 *646:io_la_data_in[20] la_data_out[18] 2.29675e-05
*RES
1 *646:io_la_data_out[18] la_data_out[18] 25.4034 
*END

*D_NET *310 0.00661453
*CONN
*P la_data_out[19] O
*I *646:io_la_data_out[19] O *D CaravelTopLevel
*CAP
1 la_data_out[19] 0.00157582
2 *646:io_la_data_out[19] 0.00157582
3 la_data_out[19] la_data_out[21] 0
4 la_data_out[19] *646:io_la_oenb[17] 0
5 la_data_out[19] *646:io_la_oenb[18] 0.000344434
6 la_data_out[19] *646:io_la_oenb[19] 0.0025042
7 la_data_out[17] la_data_out[19] 0
8 la_data_out[18] la_data_out[19] 0.000523659
9 *646:io_la_data_in[20] la_data_out[19] 0
10 *646:io_la_data_in[21] la_data_out[19] 9.05863e-05
*RES
1 *646:io_la_data_out[19] la_data_out[19] 25.5258 
*END

*D_NET *311 0.0105497
*CONN
*P la_data_out[1] O
*I *646:io_la_data_out[1] O *D CaravelTopLevel
*CAP
1 la_data_out[1] 0.000564841
2 *646:io_la_data_out[1] 7.13314e-05
3 *311:9 0.00217544
4 *311:7 0.00168193
5 la_data_out[1] *646:io_wbs_adr_i[30] 0
6 *311:9 *333:13 0.000567834
7 *311:9 *400:9 0.00401295
8 *646:io_la_data_in[0] *311:9 0.00114963
9 *646:io_la_data_in[1] *311:9 0.00032579
*RES
1 *646:io_la_data_out[1] *311:7 5.625 
2 *311:7 *311:9 47.9732 
3 *311:9 la_data_out[1] 15.6429 
*END

*D_NET *312 0.00513149
*CONN
*P la_data_out[20] O
*I *646:io_la_data_out[20] O *D CaravelTopLevel
*CAP
1 la_data_out[20] 0.00175295
2 *646:io_la_data_out[20] 0.00175295
3 la_data_out[20] *646:io_la_oenb[18] 0
4 la_data_out[20] *646:io_la_oenb[20] 0.00140578
5 la_data_out[18] la_data_out[20] 0
6 *646:io_la_data_in[19] la_data_out[20] 0.000120047
7 *646:io_la_data_in[22] la_data_out[20] 9.97594e-05
*RES
1 *646:io_la_data_out[20] la_data_out[20] 25.3817 
*END

*D_NET *313 0.00672522
*CONN
*P la_data_out[21] O
*I *646:io_la_data_out[21] O *D CaravelTopLevel
*CAP
1 la_data_out[21] 0.00132894
2 *646:io_la_data_out[21] 0.00132894
3 la_data_out[21] la_data_out[22] 0.00110643
4 la_data_out[21] *646:io_la_oenb[19] 0.000124583
5 la_data_out[21] *646:io_la_oenb[21] 0.000416248
6 la_data_out[19] la_data_out[21] 0
7 *646:io_la_data_in[21] la_data_out[21] 0.00233318
8 *646:io_la_data_in[22] la_data_out[21] 0
9 *646:io_la_data_in[23] la_data_out[21] 8.69052e-05
*RES
1 *646:io_la_data_out[21] la_data_out[21] 25.1655 
*END

*D_NET *314 0.0065781
*CONN
*P la_data_out[22] O
*I *646:io_la_data_out[22] O *D CaravelTopLevel
*CAP
1 la_data_out[22] 0.00127087
2 *646:io_la_data_out[22] 0.00127087
3 la_data_out[22] *646:io_la_oenb[21] 0.000321942
4 la_data_out[22] *646:io_la_oenb[22] 0.00218954
5 la_data_out[22] *646:io_la_oenb[23] 0
6 la_data_out[21] la_data_out[22] 0.00110643
7 *646:io_la_data_in[22] la_data_out[22] 0
8 *646:io_la_data_in[23] la_data_out[22] 0.000418464
*RES
1 *646:io_la_data_out[22] la_data_out[22] 24.9493 
*END

*D_NET *315 0.00585148
*CONN
*P la_data_out[23] O
*I *646:io_la_data_out[23] O *D CaravelTopLevel
*CAP
1 la_data_out[23] 0.00136195
2 *646:io_la_data_out[23] 0.00136195
3 la_data_out[23] *646:io_la_oenb[21] 0.000200788
4 la_data_out[23] *646:io_la_oenb[23] 0.0021278
5 *646:io_la_data_in[22] la_data_out[23] 0.00044982
6 *646:io_la_data_in[23] la_data_out[23] 0.000349165
*RES
1 *646:io_la_data_out[23] la_data_out[23] 24.4665 
*END

*D_NET *316 0.00559114
*CONN
*P la_data_out[24] O
*I *646:io_la_data_out[24] O *D CaravelTopLevel
*CAP
1 la_data_out[24] 0.00122508
2 *646:io_la_data_out[24] 0.00122508
3 la_data_out[24] *646:io_la_oenb[22] 0
4 la_data_out[24] *646:io_la_oenb[23] 0.000653347
5 la_data_out[24] *646:io_la_oenb[24] 0.00194716
6 *646:io_la_data_in[23] la_data_out[24] 0.000309118
7 *646:io_la_data_in[24] la_data_out[24] 0.000231359
*RES
1 *646:io_la_data_out[24] la_data_out[24] 24.589 
*END

*D_NET *317 0.00544456
*CONN
*P la_data_out[25] O
*I *646:io_la_data_out[25] O *D CaravelTopLevel
*CAP
1 la_data_out[25] 0.0015051
2 *646:io_la_data_out[25] 0.0015051
3 la_data_out[25] *646:io_la_oenb[25] 0.00181044
4 la_data_out[25] *646:io_la_oenb[26] 0.000182184
5 *646:io_la_data_in[24] la_data_out[25] 0.000215317
6 *646:io_la_data_in[25] la_data_out[25] 0.000226427
7 *646:io_la_data_in[27] la_data_out[25] 0
*RES
1 *646:io_la_data_out[25] la_data_out[25] 24.4448 
*END

*D_NET *318 0.00605678
*CONN
*P la_data_out[26] O
*I *646:io_la_data_out[26] O *D CaravelTopLevel
*CAP
1 la_data_out[26] 0.00125645
2 *646:io_la_data_out[26] 0.00125645
3 la_data_out[26] la_data_out[27] 0.000313298
4 la_data_out[26] *646:io_la_oenb[26] 0.000311235
5 *646:io_la_data_in[25] la_data_out[26] 5.04362e-05
6 *646:io_la_data_in[26] la_data_out[26] 0.00170733
7 *646:io_la_data_in[27] la_data_out[26] 0.00116157
*RES
1 *646:io_la_data_out[26] la_data_out[26] 24.2286 
*END

*D_NET *319 0.00487667
*CONN
*P la_data_out[27] O
*I *646:io_la_data_out[27] O *D CaravelTopLevel
*CAP
1 la_data_out[27] 0.00128887
2 *646:io_la_data_out[27] 0.00128887
3 la_data_out[27] *646:io_la_oenb[27] 0.00159321
4 la_data_out[26] la_data_out[27] 0.000313298
5 *646:io_la_data_in[27] la_data_out[27] 0.000392425
*RES
1 *646:io_la_data_out[27] la_data_out[27] 24.0845 
*END

*D_NET *320 0.00560074
*CONN
*P la_data_out[28] O
*I *646:io_la_data_out[28] O *D CaravelTopLevel
*CAP
1 la_data_out[28] 0.00118045
2 *646:io_la_data_out[28] 0.00118045
3 la_data_out[28] la_data_out[29] 0.000356018
4 la_data_out[28] *646:io_la_oenb[27] 0.000962247
5 la_data_out[28] *646:io_la_oenb[28] 0.00041757
6 *646:io_la_data_in[28] la_data_out[28] 0.001504
*RES
1 *646:io_la_data_out[28] la_data_out[28] 23.5296 
*END

*D_NET *321 0.00501301
*CONN
*P la_data_out[29] O
*I *646:io_la_data_out[29] O *D CaravelTopLevel
*CAP
1 la_data_out[29] 0.00117482
2 *646:io_la_data_out[29] 0.00117482
3 la_data_out[29] la_data_out[30] 0.000185008
4 la_data_out[29] *646:io_la_oenb[28] 0.000868446
5 la_data_out[29] *646:io_la_oenb[29] 0.000349165
6 la_data_out[28] la_data_out[29] 0.000356018
7 *646:io_la_data_in[28] la_data_out[29] 0
8 *646:io_la_data_in[29] la_data_out[29] 0.000159205
9 *646:io_la_data_in[30] la_data_out[29] 0.000745521
*RES
1 *646:io_la_data_out[29] la_data_out[29] 23.7242 
*END

*D_NET *322 0.0129263
*CONN
*P la_data_out[2] O
*I *646:io_la_data_out[2] O *D CaravelTopLevel
*CAP
1 la_data_out[2] 0.00148077
2 *646:io_la_data_out[2] 0.00148077
3 la_data_out[2] *646:io_la_oenb[2] 0.0045745
4 la_data_out[2] *646:io_la_oenb[3] 9.03126e-05
5 la_data_out[2] *646:io_wbs_adr_i[31] 0
6 la_data_out[0] la_data_out[2] 0.000321942
7 *646:io_la_data_in[2] la_data_out[2] 0.00457798
8 *646:io_la_data_in[5] la_data_out[2] 0.000400038
*RES
1 *646:io_la_data_out[2] la_data_out[2] 28.6247 
*END

*D_NET *323 0.00440157
*CONN
*P la_data_out[30] O
*I *646:io_la_data_out[30] O *D CaravelTopLevel
*CAP
1 la_data_out[30] 0.00137744
2 *646:io_la_data_out[30] 0.00137744
3 la_data_out[30] *646:io_la_oenb[30] 0.00120803
4 la_data_out[29] la_data_out[30] 0.000185008
5 *646:io_la_data_in[30] la_data_out[30] 0.000253649
*RES
1 *646:io_la_data_out[30] la_data_out[30] 23.508 
*END

*D_NET *324 0.00450856
*CONN
*P la_data_out[31] O
*I *646:io_la_data_out[31] O *D CaravelTopLevel
*CAP
1 la_data_out[31] 0.00116994
2 *646:io_la_data_out[31] 0.00116994
3 la_data_out[31] la_data_out[32] 4.6025e-06
4 la_data_out[31] *646:io_la_oenb[30] 0.000627727
5 la_data_out[31] *646:io_la_oenb[31] 0.000106564
6 *646:io_la_data_in[31] la_data_out[31] 0.00114363
7 *646:io_la_data_in[32] la_data_out[31] 0.000286157
*RES
1 *646:io_la_data_out[31] la_data_out[31] 23.2918 
*END

*D_NET *325 0.00407787
*CONN
*P la_data_out[32] O
*I *646:io_la_data_out[32] O *D CaravelTopLevel
*CAP
1 la_data_out[32] 0.00116478
2 *646:io_la_data_out[32] 0.00116478
3 la_data_out[32] *646:io_la_oenb[32] 0.00101263
4 la_data_out[31] la_data_out[32] 4.6025e-06
5 *646:io_la_data_in[32] la_data_out[32] 0.000328169
6 *646:io_la_data_in[33] la_data_out[32] 0.000402919
*RES
1 *646:io_la_data_out[32] la_data_out[32] 23.1476 
*END

*D_NET *326 0.00454293
*CONN
*P la_data_out[33] O
*I *646:io_la_data_out[33] O *D CaravelTopLevel
*CAP
1 la_data_out[33] 0.000993788
2 *646:io_la_data_out[33] 0.000993788
3 la_data_out[33] *646:io_la_oenb[32] 0.000338879
4 la_data_out[33] *646:io_la_oenb[33] 0.000962247
5 *646:io_la_data_in[33] la_data_out[33] 0.000898207
6 *646:io_la_data_in[34] la_data_out[33] 0.000356018
*RES
1 *646:io_la_data_out[33] la_data_out[33] 22.5928 
*END

*D_NET *327 0.00401658
*CONN
*P la_data_out[34] O
*I *646:io_la_data_out[34] O *D CaravelTopLevel
*CAP
1 la_data_out[34] 0.000994877
2 *646:io_la_data_out[34] 0.000994877
3 la_data_out[34] *646:io_la_oenb[33] 0.000262217
4 la_data_out[34] *646:io_la_oenb[34] 0.000774644
5 *646:io_la_data_in[34] la_data_out[34] 0.000821545
6 *646:io_la_data_in[35] la_data_out[34] 0.000168416
*RES
1 *646:io_la_data_out[34] la_data_out[34] 22.7873 
*END

*D_NET *328 0.00329725
*CONN
*P la_data_out[35] O
*I *646:io_la_data_out[35] O *D CaravelTopLevel
*CAP
1 la_data_out[35] 0.00106331
2 *646:io_la_data_out[35] 0.00106331
3 la_data_out[35] *646:io_la_oenb[35] 0.000290792
4 *646:io_la_data_in[35] la_data_out[35] 0.000727744
5 *646:io_la_data_in[36] la_data_out[35] 0.000152092
*RES
1 *646:io_la_data_out[35] la_data_out[35] 22.5711 
*END

*D_NET *329 0.00299097
*CONN
*P la_data_out[36] O
*I *646:io_la_data_out[36] O *D CaravelTopLevel
*CAP
1 la_data_out[36] 0.00104659
2 *646:io_la_data_out[36] 0.00104659
3 la_data_out[36] *646:io_la_oenb[35] 2.83129e-05
4 la_data_out[36] *646:io_la_oenb[36] 0.000543621
5 *646:io_la_data_in[36] la_data_out[36] 0.000325859
*RES
1 *646:io_la_data_out[36] la_data_out[36] 22.427 
*END

*D_NET *330 0.00275607
*CONN
*P la_data_out[37] O
*I *646:io_la_data_out[37] O *D CaravelTopLevel
*CAP
1 la_data_out[37] 0.00103927
2 *646:io_la_data_out[37] 0.00103927
3 la_data_out[37] *646:io_la_oenb[37] 0.000227713
4 *646:io_la_data_in[37] la_data_out[37] 0.00044982
5 *646:io_la_data_in[38] la_data_out[37] 0
*RES
1 *646:io_la_data_out[37] la_data_out[37] 22.2108 
*END

*D_NET *331 0.00269096
*CONN
*P la_data_out[38] O
*I *646:io_la_data_out[38] O *D CaravelTopLevel
*CAP
1 la_data_out[38] 0.000989462
2 *646:io_la_data_out[38] 0.000989462
3 la_data_out[38] *646:io_la_oenb[37] 0
4 la_data_out[38] *646:io_la_oenb[38] 0.000356018
5 *646:io_la_data_in[38] la_data_out[38] 0.000356018
*RES
1 *646:io_la_data_out[38] la_data_out[38] 21.728 
*END

*D_NET *332 0.00247158
*CONN
*P la_data_out[39] O
*I *646:io_la_data_out[39] O *D CaravelTopLevel
*CAP
1 la_data_out[39] 0.00105212
2 *646:io_la_data_out[39] 0.00105212
3 la_data_out[39] *646:io_la_oenb[39] 0.000168416
4 *646:io_la_data_in[39] la_data_out[39] 0.000198938
*RES
1 *646:io_la_data_out[39] la_data_out[39] 21.8504 
*END

*D_NET *333 0.0103195
*CONN
*P la_data_out[3] O
*I *646:io_la_data_out[3] O *D CaravelTopLevel
*CAP
1 la_data_out[3] 0.000540473
2 *646:io_la_data_out[3] 9.5853e-05
3 *333:13 0.00171244
4 *333:9 0.00126782
5 *333:13 la_data_out[4] 0.000236981
6 *333:13 *646:io_la_oenb[5] 0.000456907
7 *333:13 *400:9 0.000679684
8 la_data_out[0] la_data_out[3] 0.000351283
9 *646:io_la_data_in[0] la_data_out[3] 0
10 *646:io_la_data_in[1] *333:13 0.000247187
11 *205:13 *333:13 0.00416302
12 *311:9 *333:13 0.000567834
*RES
1 *646:io_la_data_out[3] *333:9 6.16964 
2 *333:9 *333:13 49.3929 
3 *333:13 la_data_out[3] 11.75 
*END

*D_NET *334 0.00235191
*CONN
*P la_data_out[40] O
*I *646:io_la_data_out[40] O *D CaravelTopLevel
*CAP
1 la_data_out[40] 0.00105599
2 *646:io_la_data_out[40] 0.00105599
3 la_data_out[40] *646:io_la_oenb[40] 0.00012765
4 *646:io_la_data_in[40] la_data_out[40] 0.000112284
*RES
1 *646:io_la_data_out[40] la_data_out[40] 21.7063 
*END

*D_NET *335 0.00211415
*CONN
*P la_data_out[41] O
*I *646:io_la_data_out[41] O *D CaravelTopLevel
*CAP
1 la_data_out[41] 0.0010261
2 *646:io_la_data_out[41] 0.0010261
3 la_data_out[41] *646:io_la_oenb[41] 4.6025e-06
4 *646:io_la_data_in[41] la_data_out[41] 5.73499e-05
*RES
1 *646:io_la_data_out[41] la_data_out[41] 21.4901 
*END

*D_NET *336 0.0017105
*CONN
*P la_data_out[42] O
*I *646:io_la_data_out[42] O *D CaravelTopLevel
*CAP
1 la_data_out[42] 0.000855251
2 *646:io_la_data_out[42] 0.000855251
*RES
1 *646:io_la_data_out[42] la_data_out[42] 17.2411 
*END

*D_NET *337 0.00158404
*CONN
*P la_data_out[43] O
*I *646:io_la_data_out[43] O *D CaravelTopLevel
*CAP
1 la_data_out[43] 0.000792022
2 *646:io_la_data_out[43] 0.000792022
3 *646:io_la_data_in[43] la_data_out[43] 0
*RES
1 *646:io_la_data_out[43] la_data_out[43] 16.1696 
*END

*D_NET *338 0.00146523
*CONN
*P la_data_out[44] O
*I *646:io_la_data_out[44] O *D CaravelTopLevel
*CAP
1 la_data_out[44] 0.000732615
2 *646:io_la_data_out[44] 0.000732615
3 la_data_out[44] *646:io_la_oenb[44] 0
*RES
1 *646:io_la_data_out[44] la_data_out[44] 15.0625 
*END

*D_NET *339 0.00138601
*CONN
*P la_data_out[45] O
*I *646:io_la_data_out[45] O *D CaravelTopLevel
*CAP
1 la_data_out[45] 0.000693007
2 *646:io_la_data_out[45] 0.000693007
*RES
1 *646:io_la_data_out[45] la_data_out[45] 14.2411 
*END

*D_NET *340 0.00129269
*CONN
*P la_data_out[46] O
*I *646:io_la_data_out[46] O *D CaravelTopLevel
*CAP
1 la_data_out[46] 0.000646346
2 *646:io_la_data_out[46] 0.000646346
*RES
1 *646:io_la_data_out[46] la_data_out[46] 12.8839 
*END

*D_NET *341 0.00125301
*CONN
*P la_data_out[47] O
*I *646:io_la_data_out[47] O *D CaravelTopLevel
*CAP
1 la_data_out[47] 0.000626504
2 *646:io_la_data_out[47] 0.000626504
*RES
1 *646:io_la_data_out[47] la_data_out[47] 12.5982 
*END

*D_NET *342 0.00137074
*CONN
*P la_data_out[48] O
*I *646:io_la_data_out[48] O *D CaravelTopLevel
*CAP
1 la_data_out[48] 0.000685372
2 *646:io_la_data_out[48] 0.000685372
*RES
1 *646:io_la_data_out[48] la_data_out[48] 13.7054 
*END

*D_NET *343 0.00141047
*CONN
*P la_data_out[49] O
*I *646:io_la_data_out[49] O *D CaravelTopLevel
*CAP
1 la_data_out[49] 0.000705236
2 *646:io_la_data_out[49] 0.000705236
3 la_data_out[49] *646:io_la_oenb[49] 0
*RES
1 *646:io_la_data_out[49] la_data_out[49] 14.5268 
*END

*D_NET *344 0.0115012
*CONN
*P la_data_out[4] O
*I *646:io_la_data_out[4] O *D CaravelTopLevel
*CAP
1 la_data_out[4] 0.00307102
2 *646:io_la_data_out[4] 0.00307102
3 la_data_out[4] *646:io_la_oenb[3] 0.00378407
4 la_data_out[4] *646:io_la_oenb[5] 0.000441175
5 la_data_out[4] *646:io_la_oenb[6] 0.000174428
6 *646:io_la_data_in[5] la_data_out[4] 0.000595333
7 *646:io_la_data_in[7] la_data_out[4] 0.000127169
8 *333:13 la_data_out[4] 0.000236981
*RES
1 *646:io_la_data_out[4] la_data_out[4] 28.2644 
*END

*D_NET *345 0.00154561
*CONN
*P la_data_out[50] O
*I *646:io_la_data_out[50] O *D CaravelTopLevel
*CAP
1 la_data_out[50] 0.000772807
2 *646:io_la_data_out[50] 0.000772807
3 *646:io_la_data_in[50] la_data_out[50] 0
*RES
1 *646:io_la_data_out[50] la_data_out[50] 15.8839 
*END

*D_NET *346 0.00165952
*CONN
*P la_data_out[51] O
*I *646:io_la_data_out[51] O *D CaravelTopLevel
*CAP
1 la_data_out[51] 0.000829761
2 *646:io_la_data_out[51] 0.000829761
*RES
1 *646:io_la_data_out[51] la_data_out[51] 17.2411 
*END

*D_NET *347 0.00185143
*CONN
*P la_data_out[52] O
*I *646:io_la_data_out[52] O *D CaravelTopLevel
*CAP
1 la_data_out[52] 0.000921997
2 *646:io_la_data_out[52] 0.000921997
3 la_data_out[52] *646:io_la_oenb[52] 4.6025e-06
4 *646:io_la_data_in[52] la_data_out[52] 2.83284e-06
*RES
1 *646:io_la_data_out[52] la_data_out[52] 21.418 
*END

*D_NET *348 0.00220224
*CONN
*P la_data_out[53] O
*I *646:io_la_data_out[53] O *D CaravelTopLevel
*CAP
1 la_data_out[53] 0.000957294
2 *646:io_la_data_out[53] 0.000957294
3 la_data_out[53] *646:io_la_oenb[53] 0.000259336
4 *646:io_la_data_in[53] la_data_out[53] 2.83129e-05
*RES
1 *646:io_la_data_out[53] la_data_out[53] 21.6342 
*END

*D_NET *349 0.00224314
*CONN
*P la_data_out[54] O
*I *646:io_la_data_out[54] O *D CaravelTopLevel
*CAP
1 la_data_out[54] 0.000996367
2 *646:io_la_data_out[54] 0.000996367
3 la_data_out[54] *646:io_la_oenb[54] 0.000182127
4 *646:io_la_data_in[54] la_data_out[54] 6.82827e-05
*RES
1 *646:io_la_data_out[54] la_data_out[54] 21.7784 
*END

*D_NET *350 0.00283562
*CONN
*P la_data_out[55] O
*I *646:io_la_data_out[55] O *D CaravelTopLevel
*CAP
1 la_data_out[55] 0.00101777
2 *646:io_la_data_out[55] 0.00101777
3 la_data_out[55] *646:io_la_oenb[55] 0.000353137
4 *646:io_la_data_in[55] la_data_out[55] 0.000446939
*RES
1 *646:io_la_data_out[55] la_data_out[55] 21.0507 
*END

*D_NET *351 0.00240011
*CONN
*P la_data_out[56] O
*I *646:io_la_data_out[56] O *D CaravelTopLevel
*CAP
1 la_data_out[56] 0.0010462
2 *646:io_la_data_out[56] 0.0010462
3 la_data_out[56] *646:io_la_oenb[55] 0
4 la_data_out[56] *646:io_la_oenb[56] 0.000144199
5 *646:io_la_data_in[56] la_data_out[56] 0.000135195
6 *646:io_la_data_in[57] la_data_out[56] 2.83129e-05
*RES
1 *646:io_la_data_out[56] la_data_out[56] 22.1387 
*END

*D_NET *352 0.00299846
*CONN
*P la_data_out[57] O
*I *646:io_la_data_out[57] O *D CaravelTopLevel
*CAP
1 la_data_out[57] 0.00101773
2 *646:io_la_data_out[57] 0.00101773
3 la_data_out[57] *646:io_la_oenb[56] 4.6025e-06
4 la_data_out[57] *646:io_la_oenb[57] 0.00054074
5 *646:io_la_data_in[57] la_data_out[57] 0.000313288
6 *646:io_la_data_in[58] la_data_out[57] 0.000104357
*RES
1 *646:io_la_data_out[57] la_data_out[57] 22.0162 
*END

*D_NET *353 0.00285099
*CONN
*P la_data_out[58] O
*I *646:io_la_data_out[58] O *D CaravelTopLevel
*CAP
1 la_data_out[58] 0.0010817
2 *646:io_la_data_out[58] 0.0010817
3 la_data_out[58] *646:io_la_oenb[57] 2.83129e-05
4 la_data_out[58] *646:io_la_oenb[58] 0.000209108
5 *646:io_la_data_in[58] la_data_out[58] 0.000344434
6 *646:io_la_data_in[59] la_data_out[58] 0.000105733
*RES
1 *646:io_la_data_out[58] la_data_out[58] 22.499 
*END

*D_NET *354 0.00346561
*CONN
*P la_data_out[59] O
*I *646:io_la_data_out[59] O *D CaravelTopLevel
*CAP
1 la_data_out[59] 0.00112666
2 *646:io_la_data_out[59] 0.00112666
3 la_data_out[59] *646:io_la_oenb[58] 5.38776e-05
4 la_data_out[59] *646:io_la_oenb[59] 0.000775243
5 *646:io_la_data_in[59] la_data_out[59] 0.000167858
6 *646:io_la_data_in[60] la_data_out[59] 0.000215309
*RES
1 *646:io_la_data_out[59] la_data_out[59] 22.7152 
*END

*D_NET *355 0.0122093
*CONN
*P la_data_out[5] O
*I *646:io_la_data_out[5] O *D CaravelTopLevel
*CAP
1 la_data_out[5] 0.00171902
2 *646:io_la_data_out[5] 0.00171902
3 la_data_out[5] *646:io_la_oenb[2] 0.000353137
4 *646:io_la_data_in[4] la_data_out[5] 0.000449524
5 *646:io_la_data_in[5] la_data_out[5] 0.00425465
6 *646:io_la_data_in[6] la_data_out[5] 0.00355354
7 *646:io_la_data_in[7] la_data_out[5] 5.53434e-05
8 *646:io_la_data_in[8] la_data_out[5] 0.000105101
*RES
1 *646:io_la_data_out[5] la_data_out[5] 28.1202 
*END

*D_NET *356 0.00348227
*CONN
*P la_data_out[60] O
*I *646:io_la_data_out[60] O *D CaravelTopLevel
*CAP
1 la_data_out[60] 0.00146165
2 *646:io_la_data_out[60] 0.00146165
3 la_data_out[60] la_data_out[61] 0
4 la_data_out[60] *646:io_la_oenb[60] 0.000558978
5 *646:io_la_data_in[61] la_data_out[60] 0
*RES
1 *646:io_la_data_out[60] la_data_out[60] 21.5587 
*END

*D_NET *357 0.0043555
*CONN
*P la_data_out[61] O
*I *646:io_la_data_out[61] O *D CaravelTopLevel
*CAP
1 la_data_out[61] 0.00121101
2 *646:io_la_data_out[61] 0.00121101
3 la_data_out[61] *646:io_la_oenb[60] 0
4 la_data_out[61] *646:io_la_oenb[61] 0.00100627
5 la_data_out[60] la_data_out[61] 0
6 *646:io_la_data_in[61] la_data_out[61] 0.000927205
*RES
1 *646:io_la_data_out[61] la_data_out[61] 23.0756 
*END

*D_NET *358 0.00517712
*CONN
*P la_data_out[62] O
*I *646:io_la_data_out[62] O *D CaravelTopLevel
*CAP
1 la_data_out[62] 0.0011239
2 *646:io_la_data_out[62] 0.0011239
3 la_data_out[62] la_data_out[63] 0.000649184
4 la_data_out[62] *646:io_la_oenb[62] 0.00125784
5 *646:io_la_data_in[62] la_data_out[62] 0.000288868
6 *646:io_la_data_in[63] la_data_out[62] 0.000733433
*RES
1 *646:io_la_data_out[62] la_data_out[62] 21.919 
*END

*D_NET *359 0.00376414
*CONN
*P la_data_out[63] O
*I *646:io_la_data_out[63] O *D CaravelTopLevel
*CAP
1 la_data_out[63] 0.00155748
2 *646:io_la_data_out[63] 0.00155748
3 la_data_out[62] la_data_out[63] 0.000649184
*RES
1 *646:io_la_data_out[63] la_data_out[63] 23.0972 
*END

*D_NET *360 0.00540491
*CONN
*P la_data_out[64] O
*I *646:io_la_data_out[64] O *D CaravelTopLevel
*CAP
1 la_data_out[64] 0.00114165
2 *646:io_la_data_out[64] 0.00114165
3 la_data_out[64] la_data_out[65] 0.000416162
4 la_data_out[64] *646:io_la_oenb[63] 0.000869621
5 la_data_out[64] *646:io_la_oenb[64] 0.000388585
6 la_data_out[64] *646:io_la_oenb[65] 1.8957e-06
7 *646:io_la_data_in[63] la_data_out[64] 0
8 *646:io_la_data_in[64] la_data_out[64] 0.00144535
*RES
1 *646:io_la_data_out[64] la_data_out[64] 22.3418 
*END

*D_NET *361 0.00589487
*CONN
*P la_data_out[65] O
*I *646:io_la_data_out[65] O *D CaravelTopLevel
*CAP
1 la_data_out[65] 0.00104799
2 *646:io_la_data_out[65] 0.00104799
3 la_data_out[65] la_data_out[66] 0.000507668
4 la_data_out[65] *646:io_la_oenb[64] 0.00100476
5 la_data_out[65] *646:io_la_oenb[65] 0.00158909
6 la_data_out[64] la_data_out[65] 0.000416162
7 *646:io_la_data_in[65] la_data_out[65] 0.000281211
*RES
1 *646:io_la_data_out[65] la_data_out[65] 22.4235 
*END

*D_NET *362 0.00567564
*CONN
*P la_data_out[66] O
*I *646:io_la_data_out[66] O *D CaravelTopLevel
*CAP
1 la_data_out[66] 0.00131049
2 *646:io_la_data_out[66] 0.00131049
3 la_data_out[66] *646:io_la_oenb[65] 1.99932e-05
4 la_data_out[66] *646:io_la_oenb[66] 0.00182212
5 la_data_out[66] *646:io_la_oenb[67] 1.93633e-05
6 la_data_out[65] la_data_out[66] 0.000507668
7 *646:io_la_data_in[67] la_data_out[66] 0.000685528
*RES
1 *646:io_la_data_out[66] la_data_out[66] 24.3374 
*END

*D_NET *363 0.00635138
*CONN
*P la_data_out[67] O
*I *646:io_la_data_out[67] O *D CaravelTopLevel
*CAP
1 la_data_out[67] 0.00119544
2 *646:io_la_data_out[67] 0.00119544
3 la_data_out[67] la_data_out[68] 0.000733241
4 la_data_out[67] *646:io_la_oenb[66] 0.00125204
5 la_data_out[67] *646:io_la_oenb[67] 0.00180514
6 *646:io_la_data_in[66] la_data_out[67] 5.01384e-05
7 *646:io_la_data_in[68] la_data_out[67] 0.000119928
*RES
1 *646:io_la_data_out[67] la_data_out[67] 22.8463 
*END

*D_NET *364 0.00681111
*CONN
*P la_data_out[68] O
*I *646:io_la_data_out[68] O *D CaravelTopLevel
*CAP
1 la_data_out[68] 0.00113559
2 *646:io_la_data_out[68] 0.00113559
3 la_data_out[68] *646:io_la_oenb[67] 0.000191302
4 la_data_out[68] *646:io_la_oenb[68] 0.00193641
5 la_data_out[67] la_data_out[68] 0.000733241
6 *646:io_la_data_in[68] la_data_out[68] 0.000289486
7 *646:io_la_data_in[69] la_data_out[68] 0.00138949
*RES
1 *646:io_la_data_out[68] la_data_out[68] 23 
*END

*D_NET *365 0.0054253
*CONN
*P la_data_out[69] O
*I *646:io_la_data_out[69] O *D CaravelTopLevel
*CAP
1 la_data_out[69] 0.00154106
2 *646:io_la_data_out[69] 0.00154106
3 *646:io_la_data_in[69] la_data_out[69] 0.00205369
4 *646:io_la_data_in[70] la_data_out[69] 0.000289486
*RES
1 *646:io_la_data_out[69] la_data_out[69] 23.2066 
*END

*D_NET *366 0.00976921
*CONN
*P la_data_out[6] O
*I *646:io_la_data_out[6] O *D CaravelTopLevel
*CAP
1 la_data_out[6] 0.00204558
2 *646:io_la_data_out[6] 0.00204558
3 la_data_out[6] la_data_out[7] 0.00286385
4 la_data_out[6] *646:io_la_oenb[4] 0.0018681
5 *646:io_la_data_in[6] la_data_out[6] 0.000804191
6 *646:io_la_data_in[8] la_data_out[6] 8.9548e-05
7 *646:io_la_data_in[9] la_data_out[6] 5.23607e-05
*RES
1 *646:io_la_data_out[6] la_data_out[6] 27.904 
*END

*D_NET *367 0.00515294
*CONN
*P la_data_out[70] O
*I *646:io_la_data_out[70] O *D CaravelTopLevel
*CAP
1 la_data_out[70] 0.0018919
2 *646:io_la_data_out[70] 0.0018919
3 la_data_out[70] la_data_out[71] 0.000544998
4 la_data_out[70] *646:io_la_oenb[69] 0.000762376
5 la_data_out[70] *646:io_la_oenb[70] 6.17581e-05
*RES
1 *646:io_la_data_out[70] la_data_out[70] 26.3775 
*END

*D_NET *368 0.00715937
*CONN
*P la_data_out[71] O
*I *646:io_la_data_out[71] O *D CaravelTopLevel
*CAP
1 la_data_out[71] 0.00149576
2 *646:io_la_data_out[71] 0.00149576
3 la_data_out[71] la_data_out[72] 0.00126491
4 la_data_out[71] *646:io_la_oenb[70] 0.00158678
5 la_data_out[70] la_data_out[71] 0.000544998
6 *646:io_la_data_in[72] la_data_out[71] 0.000584366
7 *646:io_la_data_in[73] la_data_out[71] 0.000186783
*RES
1 *646:io_la_data_out[71] la_data_out[71] 25.3986 
*END

*D_NET *369 0.00779867
*CONN
*P la_data_out[72] O
*I *646:io_la_data_out[72] O *D CaravelTopLevel
*CAP
1 la_data_out[72] 0.00143929
2 *646:io_la_data_out[72] 0.00143929
3 la_data_out[72] *646:io_la_oenb[72] 0.00240935
4 la_data_out[72] *646:io_la_oenb[73] 0.000776393
5 la_data_out[71] la_data_out[72] 0.00126491
6 *646:io_la_data_in[73] la_data_out[72] 0.00046943
7 *646:io_la_data_in[74] la_data_out[72] 0
*RES
1 *646:io_la_data_out[72] la_data_out[72] 25.5421 
*END

*D_NET *370 0.00778819
*CONN
*P la_data_out[73] O
*I *646:io_la_data_out[73] O *D CaravelTopLevel
*CAP
1 la_data_out[73] 0.00130508
2 *646:io_la_data_out[73] 0.00130508
3 la_data_out[73] *646:io_la_oenb[73] 0.000117884
4 la_data_out[73] *646:io_la_oenb[74] 0.000912183
5 *646:io_la_data_in[72] la_data_out[73] 0.000716494
6 *646:io_la_data_in[73] la_data_out[73] 0.00248209
7 *646:io_la_data_in[74] la_data_out[73] 0.000578972
8 *646:io_la_data_in[75] la_data_out[73] 0.000370409
*RES
1 *646:io_la_data_out[73] la_data_out[73] 23.9369 
*END

*D_NET *371 0.00778866
*CONN
*P la_data_out[74] O
*I *646:io_la_data_out[74] O *D CaravelTopLevel
*CAP
1 la_data_out[74] 0.0015842
2 *646:io_la_data_out[74] 0.0015842
3 la_data_out[74] la_data_out[75] 0.000602321
4 la_data_out[74] *646:io_la_oenb[72] 0.000278903
5 la_data_out[74] *646:io_la_oenb[73] 0.00206008
6 la_data_out[74] *646:io_la_oenb[75] 0.000737391
7 *646:io_la_data_in[75] la_data_out[74] 0.000941561
*RES
1 *646:io_la_data_out[74] la_data_out[74] 26.6368 
*END

*D_NET *372 0.00826921
*CONN
*P la_data_out[75] O
*I *646:io_la_data_out[75] O *D CaravelTopLevel
*CAP
1 la_data_out[75] 0.00161888
2 *646:io_la_data_out[75] 0.00161888
3 la_data_out[75] la_data_out[77] 7.1102e-05
4 la_data_out[75] *646:io_la_oenb[75] 0.0023845
5 la_data_out[74] la_data_out[75] 0.000602321
6 *646:io_la_data_in[76] la_data_out[75] 0.00197353
*RES
1 *646:io_la_data_out[75] la_data_out[75] 29.1326 
*END

*D_NET *373 0.00839622
*CONN
*P la_data_out[76] O
*I *646:io_la_data_out[76] O *D CaravelTopLevel
*CAP
1 la_data_out[76] 0.00140728
2 *646:io_la_data_out[76] 0.00140728
3 la_data_out[76] la_data_out[78] 0.000186783
4 la_data_out[76] *646:io_la_oenb[75] 0.00228884
5 la_data_out[76] *646:io_la_oenb[76] 0.00125947
6 la_data_out[76] *646:io_la_oenb[78] 0
7 *646:io_la_data_in[75] la_data_out[76] 0.000873691
8 *646:io_la_data_in[76] la_data_out[76] 0.000240247
9 *646:io_la_data_in[78] la_data_out[76] 0.000732626
*RES
1 *646:io_la_data_out[76] la_data_out[76] 26.2634 
*END

*D_NET *374 0.00729734
*CONN
*P la_data_out[77] O
*I *646:io_la_data_out[77] O *D CaravelTopLevel
*CAP
1 la_data_out[77] 0.0018026
2 *646:io_la_data_out[77] 0.0018026
3 la_data_out[77] la_data_out[79] 0.000350155
4 la_data_out[77] *646:io_la_oenb[76] 0.000293672
5 la_data_out[77] *646:io_la_oenb[77] 0.00297721
6 la_data_out[75] la_data_out[77] 7.1102e-05
*RES
1 *646:io_la_data_out[77] la_data_out[77] 24.72 
*END

*D_NET *375 0.00753275
*CONN
*P la_data_out[78] O
*I *646:io_la_data_out[78] O *D CaravelTopLevel
*CAP
1 la_data_out[78] 0.00183551
2 *646:io_la_data_out[78] 0.00183551
3 la_data_out[78] la_data_out[80] 0
4 la_data_out[78] *646:io_la_oenb[76] 0.000725622
5 la_data_out[78] *646:io_la_oenb[77] 0.000910215
6 la_data_out[78] *646:io_la_oenb[79] 6.4459e-05
7 la_data_out[78] *646:io_la_oenb[80] 0
8 la_data_out[76] la_data_out[78] 0.000186783
9 *646:io_la_data_in[78] la_data_out[78] 0.00151113
10 *646:io_la_data_in[80] la_data_out[78] 0.000463524
*RES
1 *646:io_la_data_out[78] la_data_out[78] 25.4088 
*END

*D_NET *376 0.00628453
*CONN
*P la_data_out[79] O
*I *646:io_la_data_out[79] O *D CaravelTopLevel
*CAP
1 la_data_out[79] 0.00198454
2 *646:io_la_data_out[79] 0.00198454
3 la_data_out[79] *646:io_la_oenb[79] 0
4 la_data_out[77] la_data_out[79] 0.000350155
5 *646:io_la_data_in[79] la_data_out[79] 0.00180226
6 *646:io_la_data_in[81] la_data_out[79] 0.000163035
*RES
1 *646:io_la_data_out[79] la_data_out[79] 27.9436 
*END

*D_NET *377 0.00827046
*CONN
*P la_data_out[7] O
*I *646:io_la_data_out[7] O *D CaravelTopLevel
*CAP
1 la_data_out[7] 0.00248483
2 *646:io_la_data_out[7] 0.00248483
3 la_data_out[7] *646:io_la_oenb[9] 0
4 la_data_out[6] la_data_out[7] 0.00286385
5 *646:io_la_data_in[7] la_data_out[7] 0
6 *646:io_la_data_in[8] la_data_out[7] 0
7 *646:io_la_data_in[9] la_data_out[7] 0.000436956
8 *155:7 la_data_out[7] 0
*RES
1 *646:io_la_data_out[7] la_data_out[7] 27.7599 
*END

*D_NET *378 0.00706984
*CONN
*P la_data_out[80] O
*I *646:io_la_data_out[80] O *D CaravelTopLevel
*CAP
1 la_data_out[80] 0.00165109
2 *646:io_la_data_out[80] 0.00165109
3 la_data_out[80] la_data_out[82] 0.000543613
4 la_data_out[80] *646:io_la_oenb[78] 0.000267589
5 la_data_out[80] *646:io_la_oenb[80] 0.00182416
6 la_data_out[78] la_data_out[80] 0
7 *646:io_la_data_in[78] la_data_out[80] 0
8 *646:io_la_data_in[79] la_data_out[80] 0.000365312
9 *646:io_la_data_in[81] la_data_out[80] 0.000766992
*RES
1 *646:io_la_data_out[80] la_data_out[80] 25.6629 
*END

*D_NET *379 0.007438
*CONN
*P la_data_out[81] O
*I *646:io_la_data_out[81] O *D CaravelTopLevel
*CAP
1 la_data_out[81] 0.00222187
2 *646:io_la_data_out[81] 0.00222187
3 la_data_out[81] la_data_out[82] 0.000292846
4 la_data_out[81] *646:io_la_oenb[80] 0.00270142
5 la_data_out[81] *646:io_la_oenb[83] 0
*RES
1 *646:io_la_data_out[81] la_data_out[81] 26.751 
*END

*D_NET *380 0.00847435
*CONN
*P la_data_out[82] O
*I *646:io_la_data_out[82] O *D CaravelTopLevel
*CAP
1 la_data_out[82] 0.00170918
2 *646:io_la_data_out[82] 0.00170918
3 la_data_out[82] la_data_out[84] 0
4 la_data_out[82] *646:io_la_oenb[80] 0.000213244
5 la_data_out[82] *646:io_la_oenb[84] 0
6 la_data_out[80] la_data_out[82] 0.000543613
7 la_data_out[81] la_data_out[82] 0.000292846
8 *646:io_la_data_in[80] la_data_out[82] 0.00043478
9 *646:io_la_data_in[81] la_data_out[82] 0.000671108
10 *646:io_la_data_in[83] la_data_out[82] 0.0029004
11 *646:io_la_data_in[85] la_data_out[82] 0
*RES
1 *646:io_la_data_out[82] la_data_out[82] 26.6285 
*END

*D_NET *381 0.00828184
*CONN
*P la_data_out[83] O
*I *646:io_la_data_out[83] O *D CaravelTopLevel
*CAP
1 la_data_out[83] 0.00232976
2 *646:io_la_data_out[83] 0.00232976
3 la_data_out[83] la_data_out[84] 0
4 la_data_out[83] la_data_out[85] 0
5 la_data_out[83] *646:io_la_oenb[82] 0.00302151
6 la_data_out[83] *646:io_la_oenb[85] 0
7 *646:io_la_data_in[83] la_data_out[83] 0
8 *646:io_la_data_in[84] la_data_out[83] 0.000600813
9 *646:io_la_data_in[86] la_data_out[83] 0
*RES
1 *646:io_la_data_out[83] la_data_out[83] 25.801 
*END

*D_NET *382 0.00641627
*CONN
*P la_data_out[84] O
*I *646:io_la_data_out[84] O *D CaravelTopLevel
*CAP
1 la_data_out[84] 0.0027103
2 *646:io_la_data_out[84] 0.0027103
3 la_data_out[84] la_data_out[85] 0.000995663
4 la_data_out[84] *646:io_la_oenb[84] 0
5 la_data_out[84] *646:io_la_oenb[86] 0
6 la_data_out[82] la_data_out[84] 0
7 la_data_out[83] la_data_out[84] 0
8 *646:io_la_data_in[83] la_data_out[84] 0
*RES
1 *646:io_la_data_out[84] la_data_out[84] 27.3275 
*END

*D_NET *383 0.00849117
*CONN
*P la_data_out[85] O
*I *646:io_la_data_out[85] O *D CaravelTopLevel
*CAP
1 la_data_out[85] 0.00191408
2 *646:io_la_data_out[85] 0.00191408
3 la_data_out[85] la_data_out[86] 0.00049122
4 la_data_out[85] la_data_out[87] 0.00110294
5 la_data_out[85] *646:io_la_oenb[82] 0
6 la_data_out[85] *646:io_la_oenb[87] 0
7 la_data_out[83] la_data_out[85] 0
8 la_data_out[84] la_data_out[85] 0.000995663
9 *646:io_la_data_in[84] la_data_out[85] 0
10 *646:io_la_data_in[86] la_data_out[85] 0.00021738
11 *646:io_la_data_in[87] la_data_out[85] 0.00180297
12 *646:io_la_data_in[88] la_data_out[85] 5.28401e-05
*RES
1 *646:io_la_data_out[85] la_data_out[85] 26.5277 
*END

*D_NET *384 0.0110842
*CONN
*P la_data_out[86] O
*I *646:io_la_data_out[86] O *D CaravelTopLevel
*CAP
1 la_data_out[86] 0.00148685
2 *646:io_la_data_out[86] 0.00148685
3 la_data_out[85] la_data_out[86] 0.00049122
4 *646:io_la_data_in[84] la_data_out[86] 0
5 *646:io_la_data_in[86] la_data_out[86] 0.0039085
6 *646:io_la_data_in[87] la_data_out[86] 0.0036153
7 *646:io_la_data_in[89] la_data_out[86] 9.55055e-05
*RES
1 *646:io_la_data_out[86] la_data_out[86] 27.6878 
*END

*D_NET *385 0.0110264
*CONN
*P la_data_out[87] O
*I *646:io_la_data_out[87] O *D CaravelTopLevel
*CAP
1 la_data_out[87] 0.00156201
2 *646:io_la_data_out[87] 0.00156201
3 la_data_out[87] la_data_out[88] 0.0029394
4 la_data_out[87] *389:9 0
5 la_data_out[85] la_data_out[87] 0.00110294
6 *646:io_la_data_in[85] la_data_out[87] 0
7 *646:io_la_data_in[87] la_data_out[87] 0.00035782
8 *646:io_la_data_in[88] la_data_out[87] 0.00350221
*RES
1 *646:io_la_data_out[87] la_data_out[87] 27.4933 
*END

*D_NET *386 0.0106243
*CONN
*P la_data_out[88] O
*I *646:io_la_data_out[88] O *D CaravelTopLevel
*CAP
1 la_data_out[88] 0.00170437
2 *646:io_la_data_out[88] 0.00170437
3 la_data_out[88] *646:io_la_oenb[88] 0
4 la_data_out[88] *646:io_la_oenb[89] 0.000150509
5 la_data_out[88] *514:9 0
6 la_data_out[87] la_data_out[88] 0.0029394
7 *646:io_la_data_in[87] la_data_out[88] 0.0023772
8 *646:io_la_data_in[88] la_data_out[88] 0.000656347
9 *646:io_la_data_in[90] la_data_out[88] 0.00109213
*RES
1 *646:io_la_data_out[88] la_data_out[88] 28.0482 
*END

*D_NET *387 0.0098724
*CONN
*P la_data_out[89] O
*I *646:io_la_data_out[89] O *D CaravelTopLevel
*CAP
1 la_data_out[89] 0.0022546
2 *646:io_la_data_out[89] 0.0022546
3 la_data_out[89] la_data_out[92] 6.60633e-06
4 la_data_out[89] *646:io_la_oenb[89] 0.00029855
5 *646:io_la_data_in[89] la_data_out[89] 0.00424363
6 *646:io_la_data_in[91] la_data_out[89] 0.000814405
*RES
1 *646:io_la_data_out[89] la_data_out[89] 28.1923 
*END

*D_NET *388 0.00704184
*CONN
*P la_data_out[8] O
*I *646:io_la_data_out[8] O *D CaravelTopLevel
*CAP
1 la_data_out[8] 0.000771178
2 *646:io_la_data_out[8] 0.00150318
3 *388:13 0.00227436
4 la_data_out[8] *646:io_la_oenb[5] 0
5 *388:13 *646:io_la_oenb[6] 0.000314072
6 *388:13 *646:io_la_oenb[7] 0.000670634
7 *646:io_la_data_in[10] *388:13 0.00139731
8 *646:io_la_data_in[6] la_data_out[8] 0
9 *646:io_la_data_in[7] *388:13 0.000111104
*RES
1 *646:io_la_data_out[8] *388:13 47.8661 
2 *388:13 la_data_out[8] 14.5357 
*END

*D_NET *389 0.00988799
*CONN
*P la_data_out[90] O
*I *646:io_la_data_out[90] O *D CaravelTopLevel
*CAP
1 la_data_out[90] 0.000350433
2 *646:io_la_data_out[90] 0.00047018
3 *389:13 0.00161711
4 *389:9 0.00173685
5 *389:13 *514:13 0.00179361
6 *389:13 *517:11 0.00391981
7 la_data_out[87] *389:9 0
8 *646:io_la_data_in[90] *389:9 0
*RES
1 *646:io_la_data_out[90] *389:9 12.9375 
2 *389:9 *389:13 47.75 
3 *389:13 la_data_out[90] 6.75 
*END

*D_NET *390 0.0115585
*CONN
*P la_data_out[91] O
*I *646:io_la_data_out[91] O *D CaravelTopLevel
*CAP
1 la_data_out[91] 0.00196028
2 *646:io_la_data_out[91] 0.00196028
3 la_data_out[91] la_data_out[92] 0.000437909
4 la_data_out[91] *646:io_la_oenb[91] 0.00450731
5 *646:io_la_data_in[90] la_data_out[91] 0.00269277
*RES
1 *646:io_la_data_out[91] la_data_out[91] 28.6247 
*END

*D_NET *391 0.00895948
*CONN
*P la_data_out[92] O
*I *646:io_la_data_out[92] O *D CaravelTopLevel
*CAP
1 la_data_out[92] 0.00247175
2 *646:io_la_data_out[92] 0.00247175
3 la_data_out[92] la_data_out[94] 0.00153855
4 la_data_out[92] *646:io_la_oenb[89] 0.000231359
5 la_data_out[92] *646:io_la_oenb[91] 0
6 la_data_out[92] *646:io_la_oenb[95] 0
7 la_data_out[92] *394:9 0
8 la_data_out[92] *519:9 0
9 la_data_out[89] la_data_out[92] 6.60633e-06
10 la_data_out[91] la_data_out[92] 0.000437909
11 *646:io_la_data_in[90] la_data_out[92] 0.000161154
12 *646:io_la_data_in[91] la_data_out[92] 0.00155319
13 *646:io_la_data_in[93] la_data_out[92] 8.72049e-05
*RES
1 *646:io_la_data_out[92] la_data_out[92] 27.4586 
*END

*D_NET *392 0.0079072
*CONN
*P la_data_out[93] O
*I *646:io_la_data_out[93] O *D CaravelTopLevel
*CAP
1 la_data_out[93] 0.000426617
2 *646:io_la_data_out[93] 0.000503969
3 *392:13 0.00212377
4 *392:9 0.00220112
5 *392:9 *646:io_la_oenb[93] 0
6 *392:13 *517:11 0.000534222
7 *392:13 *519:13 0.00168607
8 *392:13 *520:9 0.000431434
9 *646:io_la_data_in[93] la_data_out[93] 0
*RES
1 *646:io_la_data_out[93] *392:9 14.1696 
2 *392:9 *392:13 49.3929 
3 *392:13 la_data_out[93] 7.35714 
*END

*D_NET *393 0.0110476
*CONN
*P la_data_out[94] O
*I *646:io_la_data_out[94] O *D CaravelTopLevel
*CAP
1 la_data_out[94] 0.00244737
2 *646:io_la_data_out[94] 0.00244737
3 la_data_out[94] la_data_out[96] 0.00219488
4 la_data_out[94] la_data_out[97] 0
5 la_data_out[94] *646:io_la_oenb[97] 0.000301783
6 la_data_out[92] la_data_out[94] 0.00153855
7 *646:io_la_data_in[93] la_data_out[94] 0.00205792
8 *646:io_la_data_in[95] la_data_out[94] 5.97544e-05
*RES
1 *646:io_la_data_out[94] la_data_out[94] 26.9432 
*END

*D_NET *394 0.00954646
*CONN
*P la_data_out[95] O
*I *646:io_la_data_out[95] O *D CaravelTopLevel
*CAP
1 la_data_out[95] 0.000134193
2 *646:io_la_data_out[95] 0.000713852
3 *394:11 0.002397
4 *394:9 0.00297666
5 *394:11 *646:io_la_oenb[95] 0
6 *394:11 *524:11 0.000781819
7 *394:11 *525:15 0.000274288
8 la_data_out[92] *394:9 0
9 *646:io_la_data_in[92] *394:9 0
10 *646:io_la_data_in[96] *394:11 0.00177501
11 *268:11 *394:11 0.000493642
*RES
1 *646:io_la_data_out[95] *394:9 18.0982 
2 *394:9 *394:11 51.875 
3 *394:11 la_data_out[95] 5.66071 
*END

*D_NET *395 0.0114753
*CONN
*P la_data_out[96] O
*I *646:io_la_data_out[96] O *D CaravelTopLevel
*CAP
1 la_data_out[96] 0.00235445
2 *646:io_la_data_out[96] 0.00235445
3 la_data_out[96] la_data_out[98] 0.00245909
4 la_data_out[96] *646:io_la_oenb[96] 0.00142027
5 la_data_out[96] *646:io_la_oenb[99] 0.000516486
6 la_data_out[94] la_data_out[96] 0.00219488
7 *646:io_la_data_in[100] la_data_out[96] 0
8 *646:io_la_data_in[93] la_data_out[96] 2.12928e-05
9 *646:io_la_data_in[95] la_data_out[96] 0.000154403
*RES
1 *646:io_la_data_out[96] la_data_out[96] 28.1792 
*END

*D_NET *396 0.0144917
*CONN
*P la_data_out[97] O
*I *646:io_la_data_out[97] O *D CaravelTopLevel
*CAP
1 la_data_out[97] 0.00260912
2 *646:io_la_data_out[97] 0.00260912
3 la_data_out[97] la_data_out[99] 0.00135641
4 la_data_out[97] *522:13 0.000231426
5 la_data_out[97] *524:11 0.000939101
6 la_data_out[97] *525:15 0.000623595
7 la_data_out[97] *526:11 0.0007688
8 la_data_out[94] la_data_out[97] 0
9 *646:io_la_data_in[94] la_data_out[97] 0.000219729
10 *646:io_la_data_in[96] la_data_out[97] 0.00328103
11 *646:io_la_data_in[98] la_data_out[97] 0.000526873
12 *646:io_la_data_in[99] la_data_out[97] 0.00021738
13 *268:11 la_data_out[97] 0.00110915
*RES
1 *646:io_la_data_out[97] la_data_out[97] 30.9901 
*END

*D_NET *397 0.0126543
*CONN
*P la_data_out[98] O
*I *646:io_la_data_out[98] O *D CaravelTopLevel
*CAP
1 la_data_out[98] 0.00331926
2 *646:io_la_data_out[98] 0.00331926
3 la_data_out[98] *646:io_la_oenb[101] 0.000506061
4 la_data_out[98] *646:io_la_oenb[96] 0.00305068
5 la_data_out[96] la_data_out[98] 0.00245909
*RES
1 *646:io_la_data_out[98] la_data_out[98] 30.7589 
*END

*D_NET *398 0.0152478
*CONN
*P la_data_out[99] O
*I *646:io_la_data_out[99] O *D CaravelTopLevel
*CAP
1 la_data_out[99] 0.0021803
2 *646:io_la_data_out[99] 0.0021803
3 la_data_out[99] *401:9 0.000507828
4 la_data_out[97] la_data_out[99] 0.00135641
5 *646:io_la_data_in[100] la_data_out[99] 0.000190086
6 *646:io_la_data_in[101] la_data_out[99] 0.00335519
7 *646:io_la_data_in[103] la_data_out[99] 1.46617e-05
8 *646:io_la_data_in[99] la_data_out[99] 0.00546308
*RES
1 *646:io_la_data_out[99] la_data_out[99] 30.8179 
*END

*D_NET *399 0.00970232
*CONN
*P la_data_out[9] O
*I *646:io_la_data_out[9] O *D CaravelTopLevel
*CAP
1 la_data_out[9] 0.00192155
2 *646:io_la_data_out[9] 0.00192155
3 *646:io_la_data_in[11] la_data_out[9] 0
4 *646:io_la_data_in[8] la_data_out[9] 0.00210314
5 *646:io_la_data_in[9] la_data_out[9] 0.00375608
*RES
1 *646:io_la_data_out[9] la_data_out[9] 27.3996 
*END

*D_NET *400 0.0125308
*CONN
*P la_oenb[0] I
*I *646:io_la_oenb[0] I *D CaravelTopLevel
*CAP
1 la_oenb[0] 0.000599687
2 *646:io_la_oenb[0] 6.09152e-05
3 *400:9 0.00101663
4 *400:7 0.0015554
5 *400:7 wbs_dat_o[29] 0
6 *400:9 *439:9 0.000170028
7 *400:9 *632:13 0.00343118
8 *646:io_la_data_in[0] *400:9 0.000585835
9 *646:io_la_data_in[1] *400:9 0.000120342
10 *205:13 *400:9 0.000298175
11 *311:9 *400:9 0.00401295
12 *333:13 *400:9 0.000679684
*RES
1 la_oenb[0] *400:7 15.9464 
2 *400:7 *400:9 48.7946 
3 *400:9 *646:io_la_oenb[0] 5.32143 
*END

*D_NET *401 0.00856848
*CONN
*P la_oenb[100] I
*I *646:io_la_oenb[100] I *D CaravelTopLevel
*CAP
1 la_oenb[100] 4.99643e-05
2 *646:io_la_oenb[100] 0.000801689
3 *401:9 0.00348403
4 *401:7 0.0027323
5 *646:io_la_oenb[100] *524:11 4.35846e-05
6 *401:9 *403:11 0.000164965
7 *401:9 *404:15 0.000358422
8 *401:9 *524:11 0.000105179
9 *401:9 *525:15 0
10 *401:9 *526:11 0
11 la_data_out[99] *401:9 0.000507828
12 *646:io_la_data_in[101] *401:9 0.000154304
13 *646:io_la_data_in[104] *401:9 0.000120855
14 *275:11 *401:9 0
15 *277:9 *401:7 4.53514e-05
*RES
1 la_oenb[100] *401:7 5.625 
2 *401:7 *401:9 54.9554 
3 *401:9 *646:io_la_oenb[100] 19.0714 
*END

*D_NET *402 0.0162477
*CONN
*P la_oenb[101] I
*I *646:io_la_oenb[101] I *D CaravelTopLevel
*CAP
1 la_oenb[101] 0.00305053
2 *646:io_la_oenb[101] 0.00305053
3 *646:io_la_oenb[101] *403:11 0.000175914
4 *646:io_la_oenb[101] *404:15 0.000209261
5 *646:io_la_oenb[101] *525:15 0.000179387
6 *646:io_la_oenb[101] *526:11 0.00097352
7 la_data_out[101] *646:io_la_oenb[101] 0.00554886
8 la_data_out[98] *646:io_la_oenb[101] 0.000506061
9 *646:io_la_data_in[104] *646:io_la_oenb[101] 3.01213e-06
10 *646:io_la_data_in[105] *646:io_la_oenb[101] 0.00031235
11 *275:11 *646:io_la_oenb[101] 0.00143107
12 *277:11 *646:io_la_oenb[101] 0.000807204
*RES
1 la_oenb[101] *646:io_la_oenb[101] 32.6783 
*END

*D_NET *403 0.0151479
*CONN
*P la_oenb[102] I
*I *646:io_la_oenb[102] I *D CaravelTopLevel
*CAP
1 la_oenb[102] 9.28559e-05
2 *646:io_la_oenb[102] 0.000731332
3 *403:11 0.00167699
4 *403:9 0.00103851
5 *403:11 *404:11 1.16072e-05
6 *403:11 *404:15 0.00461366
7 la_data_out[101] *403:11 0.000456828
8 *646:io_la_data_in[105] *403:11 0.000139624
9 *646:io_la_data_in[106] *403:11 0.000120158
10 *646:io_la_data_in[99] *646:io_la_oenb[102] 2.66242e-05
11 *646:io_la_oenb[101] *403:11 0.000175914
12 *275:11 *403:11 0.00560594
13 *277:11 *403:11 0.000292917
14 *401:9 *403:11 0.000164965
*RES
1 la_oenb[102] *403:9 5.66071 
2 *403:9 *403:11 57.625 
3 *403:11 *646:io_la_oenb[102] 18.7232 
*END

*D_NET *404 0.011938
*CONN
*P la_oenb[103] I
*I *646:io_la_oenb[103] I *D CaravelTopLevel
*CAP
1 la_oenb[103] 0.0009928
2 *646:io_la_oenb[103] 0.00067199
3 *404:15 0.00194622
4 *404:11 0.00226703
5 *404:11 *646:io_la_oenb[107] 2.38677e-05
6 *404:11 *406:13 0
7 la_data_out[101] *404:15 0.000254013
8 la_data_out[103] *646:io_la_oenb[103] 0
9 *646:io_la_data_in[100] *646:io_la_oenb[103] 0
10 *646:io_la_data_in[101] *404:15 0.000143002
11 *646:io_la_data_in[105] *404:11 0.000121926
12 *646:io_la_data_in[105] *404:15 0.000160617
13 *646:io_la_data_in[106] *404:15 0.000111431
14 *646:io_la_oenb[101] *404:15 0.000209261
15 *277:11 *404:11 0
16 *280:11 *404:11 5.21821e-05
17 *401:9 *404:15 0.000358422
18 *403:11 *404:11 1.16072e-05
19 *403:11 *404:15 0.00461366
*RES
1 la_oenb[103] *404:11 23.3125 
2 *404:11 *404:15 47.9554 
3 *404:15 *646:io_la_oenb[103] 12.6875 
*END

*D_NET *405 0.0101914
*CONN
*P la_oenb[104] I
*I *646:io_la_oenb[104] I *D CaravelTopLevel
*CAP
1 la_oenb[104] 0.00137442
2 *646:io_la_oenb[104] 0.00175014
3 *405:15 0.00312456
4 *646:io_la_oenb[104] *406:13 0.00050045
5 *405:15 *406:13 0.000349724
6 *405:15 *409:13 5.52238e-05
7 la_data_out[105] *405:15 0.000364965
8 *152:13 *405:15 0.00267196
*RES
1 la_oenb[104] *405:15 41.7054 
2 *405:15 *646:io_la_oenb[104] 40.8929 
*END

*D_NET *406 0.0126188
*CONN
*P la_oenb[105] I
*I *646:io_la_oenb[105] I *D CaravelTopLevel
*CAP
1 la_oenb[105] 0.000147145
2 *646:io_la_oenb[105] 0.000495328
3 *406:13 0.00260479
4 *406:11 0.00225661
5 *406:11 *646:io_la_oenb[109] 0.00024583
6 la_data_out[105] *406:13 0.00159846
7 *646:io_la_data_in[102] *646:io_la_oenb[105] 0
8 *646:io_la_oenb[104] *406:13 0.00050045
9 *152:13 *406:13 0.0044205
10 *404:11 *406:13 0
11 *405:15 *406:13 0.000349724
*RES
1 la_oenb[105] *406:11 8.71429 
2 *406:11 *406:13 60.0893 
3 *406:13 *646:io_la_oenb[105] 14.3661 
*END

*D_NET *407 0.0161904
*CONN
*P la_oenb[106] I
*I *646:io_la_oenb[106] I *D CaravelTopLevel
*CAP
1 la_oenb[106] 0.00319536
2 *646:io_la_oenb[106] 0.00319536
3 *646:io_la_oenb[106] *408:11 0.00162769
4 *646:io_la_oenb[106] *410:11 0.000694113
5 la_data_out[106] *646:io_la_oenb[106] 0.00646012
6 *646:io_la_data_in[107] *646:io_la_oenb[106] 0
7 *277:11 *646:io_la_oenb[106] 0.00101777
*RES
1 la_oenb[106] *646:io_la_oenb[106] 34.0042 
*END

*D_NET *408 0.016459
*CONN
*P la_oenb[107] I
*I *646:io_la_oenb[107] I *D CaravelTopLevel
*CAP
1 la_oenb[107] 0.000160099
2 *646:io_la_oenb[107] 0.000766675
3 *408:11 0.00201129
4 *408:9 0.00140471
5 *408:11 *410:11 0.00329021
6 *646:io_la_data_in[111] *408:11 0.000199711
7 *646:io_la_oenb[106] *408:11 0.00162769
8 *277:11 *408:11 0.000843855
9 *280:11 *408:11 0.00613087
10 *404:11 *646:io_la_oenb[107] 2.38677e-05
*RES
1 la_oenb[107] *408:9 6.48214 
2 *408:9 *408:11 60.5 
3 *408:11 *646:io_la_oenb[107] 19.0268 
*END

*D_NET *409 0.0123846
*CONN
*P la_oenb[108] I
*I *646:io_la_oenb[108] I *D CaravelTopLevel
*CAP
1 la_oenb[108] 0.000333232
2 *646:io_la_oenb[108] 0.000419386
3 *409:13 0.00258676
4 *409:11 0.00250061
5 *409:11 *646:io_la_oenb[112] 0
6 la_data_out[108] *646:io_la_oenb[108] 0
7 *152:13 *409:13 0.000333038
8 *154:9 *409:11 0
9 *154:11 *409:13 0.00615637
10 *405:15 *409:13 5.52238e-05
*RES
1 la_oenb[108] *409:11 10.0357 
2 *409:11 *409:13 64.1964 
3 *409:13 *646:io_la_oenb[108] 12.6339 
*END

*D_NET *410 0.0135426
*CONN
*P la_oenb[109] I
*I *646:io_la_oenb[109] I *D CaravelTopLevel
*CAP
1 la_oenb[109] 9.09641e-05
2 *646:io_la_oenb[109] 0.000744611
3 *410:11 0.00353802
4 *410:9 0.00288438
5 *646:io_la_data_in[111] *410:11 0.00205444
6 *646:io_la_oenb[106] *410:11 0.000694113
7 *406:11 *646:io_la_oenb[109] 0.00024583
8 *408:11 *410:11 0.00329021
*RES
1 la_oenb[109] *410:9 5.66071 
2 *410:9 *410:11 65.0179 
3 *410:11 *646:io_la_oenb[109] 19.3304 
*END

*D_NET *411 0.00881591
*CONN
*P la_oenb[10] I
*I *646:io_la_oenb[10] I *D CaravelTopLevel
*CAP
1 la_oenb[10] 0.00194984
2 *646:io_la_oenb[10] 0.00194984
3 *646:io_la_oenb[10] *646:io_la_oenb[11] 0.002318
4 *646:io_la_oenb[10] *646:io_la_oenb[8] 0.000608292
5 *646:io_la_oenb[10] *646:io_la_oenb[9] 0.000337615
6 la_data_out[11] *646:io_la_oenb[10] 0.00155873
7 *646:io_la_data_in[11] *646:io_la_oenb[10] 0
8 *646:io_la_data_in[13] *646:io_la_oenb[10] 9.36062e-05
*RES
1 la_oenb[10] *646:io_la_oenb[10] 28.0571 
*END

*D_NET *412 0.0143111
*CONN
*P la_oenb[110] I
*I *646:io_la_oenb[110] I *D CaravelTopLevel
*CAP
1 la_oenb[110] 0.000305309
2 *646:io_la_oenb[110] 0.00054748
3 *412:11 0.00186491
4 *412:9 0.00162274
5 *412:11 *413:11 0.00510318
6 *412:11 *414:13 0.00353962
7 *152:13 *412:11 0.000387885
8 *154:11 *412:11 0.000940021
*RES
1 la_oenb[110] *412:9 10.3393 
2 *412:9 *412:11 63.375 
3 *412:11 *646:io_la_oenb[110] 14.6696 
*END

*D_NET *413 0.0167347
*CONN
*P la_oenb[111] I
*I *646:io_la_oenb[111] I *D CaravelTopLevel
*CAP
1 la_oenb[111] 0.000353968
2 *646:io_la_oenb[111] 0.000581846
3 *413:11 0.00153478
4 *413:9 0.0013069
5 *413:11 *414:13 0.000259742
6 *646:io_la_data_in[112] *646:io_la_oenb[111] 0
7 *158:9 *413:11 0.00640872
8 *289:11 *413:11 0.00118551
9 *412:11 *413:11 0.00510318
*RES
1 la_oenb[111] *413:9 10.0357 
2 *413:9 *413:11 63.7857 
3 *413:11 *646:io_la_oenb[111] 15.3839 
*END

*D_NET *414 0.016242
*CONN
*P la_oenb[112] I
*I *646:io_la_oenb[112] I *D CaravelTopLevel
*CAP
1 la_oenb[112] 0.000211828
2 *646:io_la_oenb[112] 0.000492637
3 *414:13 0.00153003
4 *414:11 0.00124922
5 *414:13 *415:11 0.000675218
6 la_data_out[108] *646:io_la_oenb[112] 0.000115747
7 *154:11 *414:13 0.000436749
8 *287:11 *414:13 0.000137463
9 *288:11 *414:13 0.00449296
10 *289:11 *414:13 0.00310082
11 *409:11 *646:io_la_oenb[112] 0
12 *412:11 *414:13 0.00353962
13 *413:11 *414:13 0.000259742
*RES
1 la_oenb[112] *414:11 8.71429 
2 *414:11 *414:13 67.0714 
3 *414:13 *646:io_la_oenb[112] 14.7768 
*END

*D_NET *415 0.0173488
*CONN
*P la_oenb[113] I
*I *646:io_la_oenb[113] I *D CaravelTopLevel
*CAP
1 la_oenb[113] 0.000419228
2 *646:io_la_oenb[113] 0.000412059
3 *415:11 0.0014712
4 *415:9 0.00147837
5 la_data_out[109] *646:io_la_oenb[113] 8.58715e-05
6 la_data_out[113] *415:9 0
7 *287:9 *646:io_la_oenb[113] 0
8 *287:11 *415:11 0.0067963
9 *288:11 *415:11 0.00601061
10 *414:13 *415:11 0.000675218
*RES
1 la_oenb[113] *415:9 10.8393 
2 *415:9 *415:11 68.3036 
3 *415:11 *646:io_la_oenb[113] 12.9375 
*END

*D_NET *416 0.0156955
*CONN
*P la_oenb[114] I
*I *646:io_la_oenb[114] I *D CaravelTopLevel
*CAP
1 la_oenb[114] 0.00311504
2 *646:io_la_oenb[114] 0.00311504
3 la_data_out[110] *646:io_la_oenb[114] 0
4 la_data_out[112] *646:io_la_oenb[114] 0.00373339
5 la_data_out[119] *646:io_la_oenb[114] 0.000385282
6 *646:io_la_data_in[110] *646:io_la_oenb[114] 0
7 *646:io_la_data_in[113] *646:io_la_oenb[114] 0.00240104
8 *646:io_la_data_in[114] *646:io_la_oenb[114] 2.53512e-06
9 *646:io_la_data_in[115] *646:io_la_oenb[114] 0.000683348
10 *646:io_la_data_in[117] *646:io_la_oenb[114] 0.00225986
*RES
1 la_oenb[114] *646:io_la_oenb[114] 31.5664 
*END

*D_NET *417 0.013058
*CONN
*P la_oenb[115] I
*I *646:io_la_oenb[115] I *D CaravelTopLevel
*CAP
1 la_oenb[115] 0.000104457
2 *646:io_la_oenb[115] 0.000762634
3 *417:11 0.00340127
4 *417:9 0.00274309
5 *417:11 *418:11 0.0060466
6 la_data_out[111] *646:io_la_oenb[115] 0
*RES
1 la_oenb[115] *417:9 5.66071 
2 *417:9 *417:11 72 
3 *417:11 *646:io_la_oenb[115] 18.6161 
*END

*D_NET *418 0.013149
*CONN
*P la_oenb[116] I
*I *646:io_la_oenb[116] I *D CaravelTopLevel
*CAP
1 la_oenb[116] 8.75753e-05
2 *646:io_la_oenb[116] 0.000809112
3 *418:11 0.00346361
4 *418:9 0.00274207
5 la_data_out[112] *646:io_la_oenb[116] 0
6 *646:io_la_data_in[117] *646:io_la_oenb[116] 0
7 *158:7 *646:io_la_oenb[116] 0
8 *417:11 *418:11 0.0060466
*RES
1 la_oenb[116] *418:9 5.66071 
2 *418:9 *418:11 72.4107 
3 *418:11 *646:io_la_oenb[116] 19.3304 
*END

*D_NET *419 0.016556
*CONN
*P la_oenb[117] I
*I *646:io_la_oenb[117] I *D CaravelTopLevel
*CAP
1 la_oenb[117] 0.000182196
2 *646:io_la_oenb[117] 0.000571095
3 *419:13 0.00186989
4 *419:11 0.00148099
5 *419:11 *646:io_la_oenb[122] 9.15186e-06
6 *646:io_la_data_in[113] *646:io_la_oenb[117] 7.35968e-05
7 *289:11 *419:13 0.00357521
8 *291:11 *419:13 0.00191196
9 *292:11 *419:13 0.00663622
10 *295:11 *419:13 0.000245749
*RES
1 la_oenb[117] *419:11 8.10714 
2 *419:11 *419:13 72.4107 
3 *419:13 *646:io_la_oenb[117] 15.3839 
*END

*D_NET *420 0.0164514
*CONN
*P la_oenb[118] I
*I *646:io_la_oenb[118] I *D CaravelTopLevel
*CAP
1 la_oenb[118] 0.000334693
2 *646:io_la_oenb[118] 0.000397594
3 *420:11 0.00203825
4 *420:9 0.00197535
5 *420:9 *646:io_la_oenb[123] 0.000140736
6 *420:11 *423:13 0.00450223
7 *646:io_la_data_in[114] *646:io_la_oenb[118] 0.000144767
8 *288:11 *420:11 0.000709474
9 *291:11 *420:11 0.00105078
10 *292:9 *646:io_la_oenb[118] 0
11 *295:11 *420:11 0.00515751
*RES
1 la_oenb[118] *420:9 10.8393 
2 *420:9 *420:11 73.2321 
3 *420:11 *646:io_la_oenb[118] 12.9375 
*END

*D_NET *421 0.0155134
*CONN
*P la_oenb[119] I
*I *646:io_la_oenb[119] I *D CaravelTopLevel
*CAP
1 la_oenb[119] 0.00366132
2 *646:io_la_oenb[119] 0.00366132
3 *646:io_la_oenb[119] *646:io_la_oenb[121] 0.000184031
4 *646:io_la_oenb[119] *646:io_la_oenb[124] 0.000269236
5 *646:io_la_data_in[115] *646:io_la_oenb[119] 9.13208e-05
6 *646:io_la_data_in[117] *646:io_la_oenb[119] 0.00147806
7 *646:io_la_data_in[119] *646:io_la_oenb[119] 0.000504982
8 *646:io_la_data_in[122] *646:io_la_oenb[119] 0.00457361
9 *646:io_la_data_in[123] *646:io_la_oenb[119] 0.000528323
10 *646:io_la_data_in[124] *646:io_la_oenb[119] 0.000561165
*RES
1 la_oenb[119] *646:io_la_oenb[119] 32.4407 
*END

*D_NET *422 0.00746299
*CONN
*P la_oenb[11] I
*I *646:io_la_oenb[11] I *D CaravelTopLevel
*CAP
1 la_oenb[11] 0.00222613
2 *646:io_la_oenb[11] 0.00222613
3 la_data_out[11] *646:io_la_oenb[11] 0.000358333
4 *646:io_la_data_in[12] *646:io_la_oenb[11] 0.000163293
5 *646:io_la_data_in[14] *646:io_la_oenb[11] 0.000171099
6 *646:io_la_oenb[10] *646:io_la_oenb[11] 0.002318
*RES
1 la_oenb[11] *646:io_la_oenb[11] 29.661 
*END

*D_NET *423 0.0131836
*CONN
*P la_oenb[120] I
*I *646:io_la_oenb[120] I *D CaravelTopLevel
*CAP
1 la_oenb[120] 0.000267228
2 *646:io_la_oenb[120] 0.000501315
3 *423:13 0.00321519
4 *423:11 0.00298111
5 *423:13 *428:17 4.49517e-05
6 *646:io_la_data_in[116] *646:io_la_oenb[120] 0
7 *646:io_la_data_in[126] *423:11 0
8 *295:11 *423:13 0.00167156
9 *420:11 *423:13 0.00450223
*RES
1 la_oenb[120] *423:11 9.625 
2 *423:11 *423:13 75.6964 
3 *423:13 *646:io_la_oenb[120] 13.4554 
*END

*D_NET *424 0.0162949
*CONN
*P la_oenb[121] I
*I *646:io_la_oenb[121] I *D CaravelTopLevel
*CAP
1 la_oenb[121] 0.00419324
2 *646:io_la_oenb[121] 0.00419324
3 *646:io_la_oenb[121] *646:io_la_oenb[126] 7.16304e-05
4 la_data_out[121] *646:io_la_oenb[121] 0
5 la_data_out[122] *646:io_la_oenb[121] 0.00736963
6 *646:io_la_data_in[122] *646:io_la_oenb[121] 0.00028312
7 *646:io_la_data_in[127] *646:io_la_oenb[121] 0
8 *646:io_la_oenb[119] *646:io_la_oenb[121] 0.000184031
*RES
1 la_oenb[121] *646:io_la_oenb[121] 36.1021 
*END

*D_NET *425 0.00996712
*CONN
*P la_oenb[122] I
*I *646:io_la_oenb[122] I *D CaravelTopLevel
*CAP
1 la_oenb[122] 6.10318e-05
2 *646:io_la_oenb[122] 0.000697799
3 *425:9 0.00447293
4 *425:7 0.00383616
5 *425:9 *426:11 0.000779955
6 *425:9 *428:17 0
7 *646:io_la_data_in[118] *646:io_la_oenb[122] 0
8 *292:11 *425:9 0.000110089
9 *295:11 *425:9 0
10 *419:11 *646:io_la_oenb[122] 9.15186e-06
*RES
1 la_oenb[122] *425:7 5.625 
2 *425:7 *425:9 77.75 
3 *425:9 *646:io_la_oenb[122] 17.2054 
*END

*D_NET *426 0.0150724
*CONN
*P la_oenb[123] I
*I *646:io_la_oenb[123] I *D CaravelTopLevel
*CAP
1 la_oenb[123] 0.000126203
2 *646:io_la_oenb[123] 0.000694991
3 *426:11 0.00348144
4 *426:9 0.00291265
5 la_data_out[123] *646:io_la_oenb[123] 0
6 la_data_out[126] *426:11 0.000898069
7 *300:11 *426:11 0.00603832
8 *420:9 *646:io_la_oenb[123] 0.000140736
9 *425:9 *426:11 0.000779955
*RES
1 la_oenb[123] *426:9 5.66071 
2 *426:9 *426:11 81.4464 
3 *426:11 *646:io_la_oenb[123] 17.6161 
*END

*D_NET *427 0.0220427
*CONN
*P la_oenb[124] I
*I *646:io_la_oenb[124] I *D CaravelTopLevel
*CAP
1 la_oenb[124] 0.00252194
2 *646:io_la_oenb[124] 0.00252194
3 *646:io_la_oenb[124] *646:io_la_oenb[126] 0.000160036
4 la_data_out[124] *646:io_la_oenb[124] 0.000227223
5 *646:io_la_data_in[122] *646:io_la_oenb[124] 0.000142356
6 *646:io_la_data_in[124] *646:io_la_oenb[124] 0.00777866
7 *646:io_la_data_in[125] *646:io_la_oenb[124] 0.00842126
8 *646:io_la_oenb[119] *646:io_la_oenb[124] 0.000269236
*RES
1 la_oenb[124] *646:io_la_oenb[124] 33.4401 
*END

*D_NET *428 0.014176
*CONN
*P la_oenb[125] I
*I *646:io_la_oenb[125] I *D CaravelTopLevel
*CAP
1 la_oenb[125] 0.00192201
2 *646:io_la_oenb[125] 0.000576915
3 *428:17 0.00296908
4 *428:15 0.00274708
5 *428:11 0.00227692
6 la_data_out[120] *646:io_la_oenb[125] 0
7 *646:io_la_data_in[124] *428:15 0.000317293
8 *302:11 *428:17 0.0033218
9 *302:21 *428:11 0
10 *423:13 *428:17 4.49517e-05
11 *425:9 *428:17 0
*RES
1 la_oenb[125] *428:11 45.7321 
2 *428:11 *428:15 12.5179 
3 *428:15 *428:17 55.9821 
4 *428:17 *646:io_la_oenb[125] 14.6696 
*END

*D_NET *429 0.019616
*CONN
*P la_oenb[126] I
*I *646:io_la_oenb[126] I *D CaravelTopLevel
*CAP
1 la_oenb[126] 0.00290429
2 *646:io_la_oenb[126] 0.00290429
3 *646:io_la_oenb[126] *646:io_la_oenb[127] 0.00758101
4 la_data_out[123] *646:io_la_oenb[126] 0.000105442
5 la_data_out[124] *646:io_la_oenb[126] 0.00505205
6 *646:io_la_data_in[125] *646:io_la_oenb[126] 9.31676e-05
7 *646:io_la_data_in[127] *646:io_la_oenb[126] 0.000744138
8 *646:io_la_oenb[121] *646:io_la_oenb[126] 7.16304e-05
9 *646:io_la_oenb[124] *646:io_la_oenb[126] 0.000160036
*RES
1 la_oenb[126] *646:io_la_oenb[126] 35.1107 
*END

*D_NET *430 0.0215337
*CONN
*P la_oenb[127] I
*I *646:io_la_oenb[127] I *D CaravelTopLevel
*CAP
1 la_oenb[127] 0.0025682
2 *646:io_la_oenb[127] 0.0025682
3 *646:io_la_oenb[127] user_irq[2] 0.00062613
4 la_data_out[122] *646:io_la_oenb[127] 0
5 *646:io_la_data_in[127] *646:io_la_oenb[127] 0.00819011
6 *646:io_la_oenb[126] *646:io_la_oenb[127] 0.00758101
*RES
1 la_oenb[127] *646:io_la_oenb[127] 35.2548 
*END

*D_NET *431 0.00966263
*CONN
*P la_oenb[12] I
*I *646:io_la_oenb[12] I *D CaravelTopLevel
*CAP
1 la_oenb[12] 0.00145453
2 *646:io_la_oenb[12] 0.00145453
3 la_data_out[12] *646:io_la_oenb[12] 0.000331386
4 la_data_out[14] *646:io_la_oenb[12] 0.000334469
5 *646:io_la_data_in[12] *646:io_la_oenb[12] 0.00278187
6 *646:io_la_data_in[13] *646:io_la_oenb[12] 0.00330584
*RES
1 la_oenb[12] *646:io_la_oenb[12] 26.751 
*END

*D_NET *432 0.00970571
*CONN
*P la_oenb[13] I
*I *646:io_la_oenb[13] I *D CaravelTopLevel
*CAP
1 la_oenb[13] 0.00129358
2 *646:io_la_oenb[13] 0.00129358
3 *646:io_la_oenb[13] *646:io_la_oenb[14] 0.00203099
4 la_data_out[11] *646:io_la_oenb[13] 0.000119914
5 la_data_out[12] *646:io_la_oenb[13] 0.00160901
6 la_data_out[13] *646:io_la_oenb[13] 0
7 *646:io_la_data_in[13] *646:io_la_oenb[13] 0.000117535
8 *646:io_la_data_in[14] *646:io_la_oenb[13] 0.00324109
9 *646:io_la_data_in[16] *646:io_la_oenb[13] 0
*RES
1 la_oenb[13] *646:io_la_oenb[13] 26.6068 
*END

*D_NET *433 0.00839183
*CONN
*P la_oenb[14] I
*I *646:io_la_oenb[14] I *D CaravelTopLevel
*CAP
1 la_oenb[14] 0.00138447
2 *646:io_la_oenb[14] 0.00138447
3 *646:io_la_oenb[14] *646:io_la_oenb[15] 0.0001505
4 *646:io_la_oenb[14] *646:io_la_oenb[16] 4.93125e-05
5 la_data_out[15] *646:io_la_oenb[14] 0.00138802
6 la_data_out[16] *646:io_la_oenb[14] 0.000721383
7 *646:io_la_data_in[13] *646:io_la_oenb[14] 0.000915346
8 *646:io_la_data_in[14] *646:io_la_oenb[14] 0.00028161
9 *646:io_la_data_in[15] *646:io_la_oenb[14] 8.57121e-05
10 *646:io_la_oenb[13] *646:io_la_oenb[14] 0.00203099
*RES
1 la_oenb[14] *646:io_la_oenb[14] 26.3906 
*END

*D_NET *434 0.00884348
*CONN
*P la_oenb[15] I
*I *646:io_la_oenb[15] I *D CaravelTopLevel
*CAP
1 la_oenb[15] 0.0013987
2 *646:io_la_oenb[15] 0.0013987
3 *646:io_la_oenb[15] *646:io_la_oenb[16] 0.0017995
4 la_data_out[16] *646:io_la_oenb[15] 0.000344434
5 *646:io_la_data_in[14] *646:io_la_oenb[15] 0.000739697
6 *646:io_la_data_in[16] *646:io_la_oenb[15] 0.00301196
7 *646:io_la_oenb[14] *646:io_la_oenb[15] 0.0001505
*RES
1 la_oenb[15] *646:io_la_oenb[15] 26.1744 
*END

*D_NET *435 0.00822412
*CONN
*P la_oenb[16] I
*I *646:io_la_oenb[16] I *D CaravelTopLevel
*CAP
1 la_oenb[16] 0.00139914
2 *646:io_la_oenb[16] 0.00139914
3 *646:io_la_oenb[16] *646:io_la_oenb[18] 3.04937e-05
4 la_data_out[14] *646:io_la_oenb[16] 0
5 la_data_out[16] *646:io_la_oenb[16] 0.00289311
6 *646:io_la_data_in[16] *646:io_la_oenb[16] 0.000299533
7 *646:io_la_data_in[17] *646:io_la_oenb[16] 0.000353896
8 *646:io_la_oenb[14] *646:io_la_oenb[16] 4.93125e-05
9 *646:io_la_oenb[15] *646:io_la_oenb[16] 0.0017995
*RES
1 la_oenb[16] *646:io_la_oenb[16] 25.6916 
*END

*D_NET *436 0.00681901
*CONN
*P la_oenb[17] I
*I *646:io_la_oenb[17] I *D CaravelTopLevel
*CAP
1 la_oenb[17] 0.00198476
2 *646:io_la_oenb[17] 0.00198476
3 *646:io_la_oenb[17] *646:io_la_oenb[19] 0
4 la_data_out[17] *646:io_la_oenb[17] 6.05116e-05
5 la_data_out[19] *646:io_la_oenb[17] 0
6 *646:io_la_data_in[18] *646:io_la_oenb[17] 0.00278897
*RES
1 la_oenb[17] *646:io_la_oenb[17] 27.5073 
*END

*D_NET *437 0.00778951
*CONN
*P la_oenb[18] I
*I *646:io_la_oenb[18] I *D CaravelTopLevel
*CAP
1 la_oenb[18] 0.00156241
2 *646:io_la_oenb[18] 0.00156241
3 *646:io_la_oenb[18] *646:io_la_oenb[19] 0.00138842
4 *646:io_la_oenb[18] *646:io_la_oenb[20] 0
5 la_data_out[17] *646:io_la_oenb[18] 0.000115213
6 la_data_out[18] *646:io_la_oenb[18] 4.16907e-05
7 la_data_out[19] *646:io_la_oenb[18] 0.000344434
8 la_data_out[20] *646:io_la_oenb[18] 0
9 *646:io_la_data_in[17] *646:io_la_oenb[18] 0.000164328
10 *646:io_la_data_in[19] *646:io_la_oenb[18] 0.0025801
11 *646:io_la_oenb[16] *646:io_la_oenb[18] 3.04937e-05
*RES
1 la_oenb[18] *646:io_la_oenb[18] 25.67 
*END

*D_NET *438 0.00736054
*CONN
*P la_oenb[19] I
*I *646:io_la_oenb[19] I *D CaravelTopLevel
*CAP
1 la_oenb[19] 0.0013858
2 *646:io_la_oenb[19] 0.0013858
3 *646:io_la_oenb[19] *646:io_la_oenb[20] 8.05459e-05
4 la_data_out[19] *646:io_la_oenb[19] 0.0025042
5 la_data_out[21] *646:io_la_oenb[19] 0.000124583
6 *646:io_la_data_in[18] *646:io_la_oenb[19] 0
7 *646:io_la_data_in[19] *646:io_la_oenb[19] 0.000321942
8 *646:io_la_data_in[20] *646:io_la_oenb[19] 0
9 *646:io_la_data_in[21] *646:io_la_oenb[19] 0.000169242
10 *646:io_la_oenb[17] *646:io_la_oenb[19] 0
11 *646:io_la_oenb[18] *646:io_la_oenb[19] 0.00138842
*RES
1 la_oenb[19] *646:io_la_oenb[19] 25.4538 
*END

*D_NET *439 0.00996134
*CONN
*P la_oenb[1] I
*I *646:io_la_oenb[1] I *D CaravelTopLevel
*CAP
1 la_oenb[1] 0.000658914
2 *646:io_la_oenb[1] 8.89614e-05
3 *439:9 0.00161136
4 *439:7 0.00218132
5 *439:9 *600:11 0.00122372
6 *439:9 *631:11 0.000185358
7 *439:9 *632:13 0.000283616
8 *646:io_la_data_in[1] *439:9 0.000826257
9 *205:13 *439:9 0.00273181
10 *400:9 *439:9 0.000170028
*RES
1 la_oenb[1] *439:7 16.8571 
2 *439:7 *439:9 46.9464 
3 *439:9 *646:io_la_oenb[1] 5.45536 
*END

*D_NET *440 0.00670269
*CONN
*P la_oenb[20] I
*I *646:io_la_oenb[20] I *D CaravelTopLevel
*CAP
1 la_oenb[20] 0.00131917
2 *646:io_la_oenb[20] 0.00131917
3 la_data_out[20] *646:io_la_oenb[20] 0.00140578
4 *646:io_la_data_in[19] *646:io_la_oenb[20] 8.08591e-05
5 *646:io_la_data_in[21] *646:io_la_oenb[20] 0.0023766
6 *646:io_la_data_in[22] *646:io_la_oenb[20] 0.000120551
7 *646:io_la_oenb[18] *646:io_la_oenb[20] 0
8 *646:io_la_oenb[19] *646:io_la_oenb[20] 8.05459e-05
*RES
1 la_oenb[20] *646:io_la_oenb[20] 25.3096 
*END

*D_NET *441 0.00569166
*CONN
*P la_oenb[21] I
*I *646:io_la_oenb[21] I *D CaravelTopLevel
*CAP
1 la_oenb[21] 0.00171848
2 *646:io_la_oenb[21] 0.00171848
3 *646:io_la_oenb[21] *646:io_la_oenb[22] 0.0011189
4 la_data_out[21] *646:io_la_oenb[21] 0.000416248
5 la_data_out[22] *646:io_la_oenb[21] 0.000321942
6 la_data_out[23] *646:io_la_oenb[21] 0.000200788
7 *646:io_la_data_in[20] *646:io_la_oenb[21] 0.000196816
*RES
1 la_oenb[21] *646:io_la_oenb[21] 24.7548 
*END

*D_NET *442 0.00660723
*CONN
*P la_oenb[22] I
*I *646:io_la_oenb[22] I *D CaravelTopLevel
*CAP
1 la_oenb[22] 0.00145054
2 *646:io_la_oenb[22] 0.00145054
3 la_data_out[22] *646:io_la_oenb[22] 0.00218954
4 la_data_out[24] *646:io_la_oenb[22] 0
5 *646:io_la_data_in[23] *646:io_la_oenb[22] 4.16907e-05
6 *646:io_la_data_in[24] *646:io_la_oenb[22] 0.000356018
7 *646:io_la_oenb[21] *646:io_la_oenb[22] 0.0011189
*RES
1 la_oenb[22] *646:io_la_oenb[22] 24.9493 
*END

*D_NET *443 0.00655473
*CONN
*P la_oenb[23] I
*I *646:io_la_oenb[23] I *D CaravelTopLevel
*CAP
1 la_oenb[23] 0.00112744
2 *646:io_la_oenb[23] 0.00112744
3 la_data_out[22] *646:io_la_oenb[23] 0
4 la_data_out[23] *646:io_la_oenb[23] 0.0021278
5 la_data_out[24] *646:io_la_oenb[23] 0.000653347
6 *646:io_la_data_in[23] *646:io_la_oenb[23] 0.00151869
*RES
1 la_oenb[23] *646:io_la_oenb[23] 24.7331 
*END

*D_NET *444 0.00662501
*CONN
*P la_oenb[24] I
*I *646:io_la_oenb[24] I *D CaravelTopLevel
*CAP
1 la_oenb[24] 0.0011487
2 *646:io_la_oenb[24] 0.0011487
3 la_data_out[24] *646:io_la_oenb[24] 0.00194716
4 *646:io_la_data_in[24] *646:io_la_oenb[24] 0.000321942
5 *646:io_la_data_in[25] *646:io_la_oenb[24] 0.00191927
6 *646:io_la_data_in[26] *646:io_la_oenb[24] 0.000139242
*RES
1 la_oenb[24] *646:io_la_oenb[24] 24.5169 
*END

*D_NET *445 0.00619099
*CONN
*P la_oenb[25] I
*I *646:io_la_oenb[25] I *D CaravelTopLevel
*CAP
1 la_oenb[25] 0.00126874
2 *646:io_la_oenb[25] 0.00126874
3 la_data_out[25] *646:io_la_oenb[25] 0.00181044
4 *646:io_la_data_in[25] *646:io_la_oenb[25] 0.00134491
5 *646:io_la_data_in[26] *646:io_la_oenb[25] 0.00037197
6 *646:io_la_data_in[27] *646:io_la_oenb[25] 0.000126195
*RES
1 la_oenb[25] *646:io_la_oenb[25] 24.3728 
*END

*D_NET *446 0.00543647
*CONN
*P la_oenb[26] I
*I *646:io_la_oenb[26] I *D CaravelTopLevel
*CAP
1 la_oenb[26] 0.00158618
2 *646:io_la_oenb[26] 0.00158618
3 la_data_out[25] *646:io_la_oenb[26] 0.000182184
4 la_data_out[26] *646:io_la_oenb[26] 0.000311235
5 *646:io_la_data_in[25] *646:io_la_oenb[26] 0
6 *646:io_la_data_in[27] *646:io_la_oenb[26] 0.00177068
*RES
1 la_oenb[26] *646:io_la_oenb[26] 25.9793 
*END

*D_NET *447 0.00559928
*CONN
*P la_oenb[27] I
*I *646:io_la_oenb[27] I *D CaravelTopLevel
*CAP
1 la_oenb[27] 0.00119181
2 *646:io_la_oenb[27] 0.00119181
3 *646:io_la_oenb[27] *646:io_la_oenb[28] 0.000356018
4 la_data_out[27] *646:io_la_oenb[27] 0.00159321
5 la_data_out[28] *646:io_la_oenb[27] 0.000962247
6 *646:io_la_data_in[28] *646:io_la_oenb[27] 0.000304187
7 *646:io_la_data_in[29] *646:io_la_oenb[27] 0
*RES
1 la_oenb[27] *646:io_la_oenb[27] 24.0124 
*END

*D_NET *448 0.00469499
*CONN
*P la_oenb[28] I
*I *646:io_la_oenb[28] I *D CaravelTopLevel
*CAP
1 la_oenb[28] 0.00127547
2 *646:io_la_oenb[28] 0.00127547
3 la_data_out[28] *646:io_la_oenb[28] 0.00041757
4 la_data_out[29] *646:io_la_oenb[28] 0.000868446
5 *646:io_la_data_in[29] *646:io_la_oenb[28] 0.000502022
6 *646:io_la_oenb[27] *646:io_la_oenb[28] 0.000356018
*RES
1 la_oenb[28] *646:io_la_oenb[28] 23.7962 
*END

*D_NET *449 0.00445921
*CONN
*P la_oenb[29] I
*I *646:io_la_oenb[29] I *D CaravelTopLevel
*CAP
1 la_oenb[29] 0.00137794
2 *646:io_la_oenb[29] 0.00137794
3 *646:io_la_oenb[29] *646:io_la_oenb[30] 4.93125e-05
4 la_data_out[29] *646:io_la_oenb[29] 0.000349165
5 *646:io_la_data_in[30] *646:io_la_oenb[29] 0.00130485
*RES
1 la_oenb[29] *646:io_la_oenb[29] 23.6521 
*END

*D_NET *450 0.012423
*CONN
*P la_oenb[2] I
*I *646:io_la_oenb[2] I *D CaravelTopLevel
*CAP
1 la_oenb[2] 0.00169235
2 *646:io_la_oenb[2] 0.00169235
3 *646:io_la_oenb[2] *483:7 0
4 la_data_out[0] *646:io_la_oenb[2] 0.0012556
5 la_data_out[2] *646:io_la_oenb[2] 0.0045745
6 la_data_out[5] *646:io_la_oenb[2] 0.000353137
7 *646:io_la_data_in[4] *646:io_la_oenb[2] 0.00273751
8 *646:io_la_data_in[5] *646:io_la_oenb[2] 0.000117535
*RES
1 la_oenb[2] *646:io_la_oenb[2] 28.6247 
*END

*D_NET *451 0.00521975
*CONN
*P la_oenb[30] I
*I *646:io_la_oenb[30] I *D CaravelTopLevel
*CAP
1 la_oenb[30] 0.00107368
2 *646:io_la_oenb[30] 0.00107368
3 *646:io_la_oenb[30] *646:io_la_oenb[31] 0.000224612
4 la_data_out[30] *646:io_la_oenb[30] 0.00120803
5 la_data_out[31] *646:io_la_oenb[30] 0.000627727
6 *646:io_la_data_in[30] *646:io_la_oenb[30] 0.000727744
7 *646:io_la_data_in[31] *646:io_la_oenb[30] 0.000234974
8 *646:io_la_oenb[29] *646:io_la_oenb[30] 4.93125e-05
*RES
1 la_oenb[30] *646:io_la_oenb[30] 23.0972 
*END

*D_NET *452 0.00355454
*CONN
*P la_oenb[31] I
*I *646:io_la_oenb[31] I *D CaravelTopLevel
*CAP
1 la_oenb[31] 0.00141824
2 *646:io_la_oenb[31] 0.00141824
3 la_data_out[31] *646:io_la_oenb[31] 0.000106564
4 *646:io_la_data_in[32] *646:io_la_oenb[31] 0.000386881
5 *646:io_la_oenb[30] *646:io_la_oenb[31] 0.000224612
*RES
1 la_oenb[31] *646:io_la_oenb[31] 22.9531 
*END

*D_NET *453 0.00423881
*CONN
*P la_oenb[32] I
*I *646:io_la_oenb[32] I *D CaravelTopLevel
*CAP
1 la_oenb[32] 0.00116886
2 *646:io_la_oenb[32] 0.00116886
3 la_data_out[32] *646:io_la_oenb[32] 0.00101263
4 la_data_out[33] *646:io_la_oenb[32] 0.000338879
5 *646:io_la_data_in[32] *646:io_la_oenb[32] 0.00044982
6 *646:io_la_data_in[33] *646:io_la_oenb[32] 9.97563e-05
*RES
1 la_oenb[32] *646:io_la_oenb[32] 23.0756 
*END

*D_NET *454 0.00366171
*CONN
*P la_oenb[33] I
*I *646:io_la_oenb[33] I *D CaravelTopLevel
*CAP
1 la_oenb[33] 0.00114624
2 *646:io_la_oenb[33] 0.00114624
3 la_data_out[33] *646:io_la_oenb[33] 0.000962247
4 la_data_out[34] *646:io_la_oenb[33] 0.000262217
5 *646:io_la_data_in[34] *646:io_la_oenb[33] 0.000144758
*RES
1 la_oenb[33] *646:io_la_oenb[33] 22.9314 
*END

*D_NET *455 0.00331968
*CONN
*P la_oenb[34] I
*I *646:io_la_oenb[34] I *D CaravelTopLevel
*CAP
1 la_oenb[34] 0.00110918
2 *646:io_la_oenb[34] 0.00110918
3 la_data_out[34] *646:io_la_oenb[34] 0.000774644
4 *646:io_la_data_in[35] *646:io_la_oenb[34] 0.000326674
*RES
1 la_oenb[34] *646:io_la_oenb[34] 22.7152 
*END

*D_NET *456 0.00337948
*CONN
*P la_oenb[35] I
*I *646:io_la_oenb[35] I *D CaravelTopLevel
*CAP
1 la_oenb[35] 0.00115355
2 *646:io_la_oenb[35] 0.00115355
3 la_data_out[35] *646:io_la_oenb[35] 0.000290792
4 la_data_out[36] *646:io_la_oenb[35] 2.83129e-05
5 *646:io_la_data_in[35] *646:io_la_oenb[35] 0.000148473
6 *646:io_la_data_in[36] *646:io_la_oenb[35] 0.000604812
*RES
1 la_oenb[35] *646:io_la_oenb[35] 22.499 
*END

*D_NET *457 0.0030378
*CONN
*P la_oenb[36] I
*I *646:io_la_oenb[36] I *D CaravelTopLevel
*CAP
1 la_oenb[36] 0.00115537
2 *646:io_la_oenb[36] 0.00115537
3 la_data_out[36] *646:io_la_oenb[36] 0.000543621
4 *646:io_la_data_in[37] *646:io_la_oenb[36] 0.000183444
*RES
1 la_oenb[36] *646:io_la_oenb[36] 21.6776 
*END

*D_NET *458 0.0025542
*CONN
*P la_oenb[37] I
*I *646:io_la_oenb[37] I *D CaravelTopLevel
*CAP
1 la_oenb[37] 0.001063
2 *646:io_la_oenb[37] 0.001063
3 la_data_out[37] *646:io_la_oenb[37] 0.000227713
4 la_data_out[38] *646:io_la_oenb[37] 0
5 *646:io_la_data_in[37] *646:io_la_oenb[37] 0
6 *646:io_la_data_in[38] *646:io_la_oenb[37] 0.00020049
*RES
1 la_oenb[37] *646:io_la_oenb[37] 22.1387 
*END

*D_NET *459 0.00259735
*CONN
*P la_oenb[38] I
*I *646:io_la_oenb[38] I *D CaravelTopLevel
*CAP
1 la_oenb[38] 0.000989556
2 *646:io_la_oenb[38] 0.000989556
3 la_data_out[38] *646:io_la_oenb[38] 0.000356018
4 *646:io_la_data_in[39] *646:io_la_oenb[38] 0.000262217
*RES
1 la_oenb[38] *646:io_la_oenb[38] 21.9946 
*END

*D_NET *460 0.00229442
*CONN
*P la_oenb[39] I
*I *646:io_la_oenb[39] I *D CaravelTopLevel
*CAP
1 la_oenb[39] 0.000990206
2 *646:io_la_oenb[39] 0.000990206
3 la_data_out[39] *646:io_la_oenb[39] 0.000168416
4 *646:io_la_data_in[40] *646:io_la_oenb[39] 0.000145592
*RES
1 la_oenb[39] *646:io_la_oenb[39] 21.7784 
*END

*D_NET *461 0.01217
*CONN
*P la_oenb[3] I
*I *646:io_la_oenb[3] I *D CaravelTopLevel
*CAP
1 la_oenb[3] 0.00162451
2 *646:io_la_oenb[3] 0.00162451
3 *646:io_la_oenb[3] *646:io_la_oenb[6] 0
4 la_data_out[2] *646:io_la_oenb[3] 9.03126e-05
5 la_data_out[4] *646:io_la_oenb[3] 0.00378407
6 *646:io_la_data_in[1] *646:io_la_oenb[3] 0.000203025
7 *646:io_la_data_in[2] *646:io_la_oenb[3] 0.00222856
8 *646:io_la_data_in[5] *646:io_la_oenb[3] 0.00261503
*RES
1 la_oenb[3] *646:io_la_oenb[3] 28.4085 
*END

*D_NET *462 0.00211052
*CONN
*P la_oenb[40] I
*I *646:io_la_oenb[40] I *D CaravelTopLevel
*CAP
1 la_oenb[40] 0.000977278
2 *646:io_la_oenb[40] 0.000977278
3 la_data_out[40] *646:io_la_oenb[40] 0.00012765
4 *646:io_la_data_in[41] *646:io_la_oenb[40] 2.83129e-05
*RES
1 la_oenb[40] *646:io_la_oenb[40] 21.6342 
*END

*D_NET *463 0.00185575
*CONN
*P la_oenb[41] I
*I *646:io_la_oenb[41] I *D CaravelTopLevel
*CAP
1 la_oenb[41] 0.000905331
2 *646:io_la_oenb[41] 0.000905331
3 la_data_out[41] *646:io_la_oenb[41] 4.6025e-06
4 *646:io_la_data_in[42] *646:io_la_oenb[41] 4.04846e-05
*RES
1 la_oenb[41] *646:io_la_oenb[41] 21.418 
*END

*D_NET *464 0.00165952
*CONN
*P la_oenb[42] I
*I *646:io_la_oenb[42] I *D CaravelTopLevel
*CAP
1 la_oenb[42] 0.000829761
2 *646:io_la_oenb[42] 0.000829761
*RES
1 la_oenb[42] *646:io_la_oenb[42] 17.2411 
*END

*D_NET *465 0.00154561
*CONN
*P la_oenb[43] I
*I *646:io_la_oenb[43] I *D CaravelTopLevel
*CAP
1 la_oenb[43] 0.000772807
2 *646:io_la_oenb[43] 0.000772807
3 *646:io_la_data_in[44] *646:io_la_oenb[43] 0
*RES
1 la_oenb[43] *646:io_la_oenb[43] 15.8839 
*END

*D_NET *466 0.00141047
*CONN
*P la_oenb[44] I
*I *646:io_la_oenb[44] I *D CaravelTopLevel
*CAP
1 la_oenb[44] 0.000705236
2 *646:io_la_oenb[44] 0.000705236
3 la_data_out[44] *646:io_la_oenb[44] 0
*RES
1 la_oenb[44] *646:io_la_oenb[44] 14.5268 
*END

*D_NET *467 0.00133242
*CONN
*P la_oenb[45] I
*I *646:io_la_oenb[45] I *D CaravelTopLevel
*CAP
1 la_oenb[45] 0.000666212
2 *646:io_la_oenb[45] 0.000666212
*RES
1 la_oenb[45] *646:io_la_oenb[45] 13.7054 
*END

*D_NET *468 0.00121535
*CONN
*P la_oenb[46] I
*I *646:io_la_oenb[46] I *D CaravelTopLevel
*CAP
1 la_oenb[46] 0.000607675
2 *646:io_la_oenb[46] 0.000607675
*RES
1 la_oenb[46] *646:io_la_oenb[46] 12.4732 
*END

*D_NET *469 0.00125437
*CONN
*P la_oenb[47] I
*I *646:io_la_oenb[47] I *D CaravelTopLevel
*CAP
1 la_oenb[47] 0.000627187
2 *646:io_la_oenb[47] 0.000627187
*RES
1 la_oenb[47] *646:io_la_oenb[47] 12.8839 
*END

*D_NET *470 0.00144543
*CONN
*P la_oenb[48] I
*I *646:io_la_oenb[48] I *D CaravelTopLevel
*CAP
1 la_oenb[48] 0.000722714
2 *646:io_la_oenb[48] 0.000722714
*RES
1 la_oenb[48] *646:io_la_oenb[48] 14.8482 
*END

*D_NET *471 0.0014696
*CONN
*P la_oenb[49] I
*I *646:io_la_oenb[49] I *D CaravelTopLevel
*CAP
1 la_oenb[49] 0.000734798
2 *646:io_la_oenb[49] 0.000734798
3 la_data_out[49] *646:io_la_oenb[49] 0
*RES
1 la_oenb[49] *646:io_la_oenb[49] 15.0625 
*END

*D_NET *472 0.0103011
*CONN
*P la_oenb[4] I
*I *646:io_la_oenb[4] I *D CaravelTopLevel
*CAP
1 la_oenb[4] 0.00204281
2 *646:io_la_oenb[4] 0.00204281
3 la_data_out[6] *646:io_la_oenb[4] 0.0018681
4 *646:io_la_data_in[4] *646:io_la_oenb[4] 0.00371655
5 *646:io_la_data_in[6] *646:io_la_oenb[4] 0.000630779
*RES
1 la_oenb[4] *646:io_la_oenb[4] 28.1923 
*END

*D_NET *473 0.00158404
*CONN
*P la_oenb[50] I
*I *646:io_la_oenb[50] I *D CaravelTopLevel
*CAP
1 la_oenb[50] 0.00079202
2 *646:io_la_oenb[50] 0.00079202
3 *646:io_la_data_in[51] *646:io_la_oenb[50] 0
*RES
1 la_oenb[50] *646:io_la_oenb[50] 16.1696 
*END

*D_NET *474 0.00165952
*CONN
*P la_oenb[51] I
*I *646:io_la_oenb[51] I *D CaravelTopLevel
*CAP
1 la_oenb[51] 0.000829761
2 *646:io_la_oenb[51] 0.000829761
3 *646:io_la_data_in[52] *646:io_la_oenb[51] 0
*RES
1 la_oenb[51] *646:io_la_oenb[51] 17.2411 
*END

*D_NET *475 0.00211421
*CONN
*P la_oenb[52] I
*I *646:io_la_oenb[52] I *D CaravelTopLevel
*CAP
1 la_oenb[52] 0.00102613
2 *646:io_la_oenb[52] 0.00102613
3 la_data_out[52] *646:io_la_oenb[52] 4.6025e-06
4 *646:io_la_data_in[53] *646:io_la_oenb[52] 5.73464e-05
*RES
1 la_oenb[52] *646:io_la_oenb[52] 21.4901 
*END

*D_NET *476 0.00253648
*CONN
*P la_oenb[53] I
*I *646:io_la_oenb[53] I *D CaravelTopLevel
*CAP
1 la_oenb[53] 0.00107018
2 *646:io_la_oenb[53] 0.00107018
3 la_data_out[53] *646:io_la_oenb[53] 0.000259336
4 *646:io_la_data_in[54] *646:io_la_oenb[53] 0.000136789
*RES
1 la_oenb[53] *646:io_la_oenb[53] 20.7624 
*END

*D_NET *477 0.00239184
*CONN
*P la_oenb[54] I
*I *646:io_la_oenb[54] I *D CaravelTopLevel
*CAP
1 la_oenb[54] 0.000997201
2 *646:io_la_oenb[54] 0.000997201
3 la_data_out[54] *646:io_la_oenb[54] 0.000182127
4 *646:io_la_data_in[55] *646:io_la_oenb[54] 0.000215309
*RES
1 la_oenb[54] *646:io_la_oenb[54] 21.8504 
*END

*D_NET *478 0.00260028
*CONN
*P la_oenb[55] I
*I *646:io_la_oenb[55] I *D CaravelTopLevel
*CAP
1 la_oenb[55] 0.00102138
2 *646:io_la_oenb[55] 0.00102138
3 la_data_out[55] *646:io_la_oenb[55] 0.000353137
4 la_data_out[56] *646:io_la_oenb[55] 0
5 *646:io_la_data_in[55] *646:io_la_oenb[55] 0
6 *646:io_la_data_in[56] *646:io_la_oenb[55] 0.000204397
*RES
1 la_oenb[55] *646:io_la_oenb[55] 21.728 
*END

*D_NET *479 0.00273296
*CONN
*P la_oenb[56] I
*I *646:io_la_oenb[56] I *D CaravelTopLevel
*CAP
1 la_oenb[56] 0.00113266
2 *646:io_la_oenb[56] 0.00113266
3 la_data_out[56] *646:io_la_oenb[56] 0.000144199
4 la_data_out[57] *646:io_la_oenb[56] 4.6025e-06
5 *646:io_la_data_in[57] *646:io_la_oenb[56] 0.000318849
*RES
1 la_oenb[56] *646:io_la_oenb[56] 22.2108 
*END

*D_NET *480 0.00345872
*CONN
*P la_oenb[57] I
*I *646:io_la_oenb[57] I *D CaravelTopLevel
*CAP
1 la_oenb[57] 0.00116921
2 *646:io_la_oenb[57] 0.00116921
3 *646:io_la_oenb[57] *646:io_la_oenb[58] 0
4 la_data_out[57] *646:io_la_oenb[57] 0.00054074
5 la_data_out[58] *646:io_la_oenb[57] 2.83129e-05
6 *646:io_la_data_in[58] *646:io_la_oenb[57] 0.000551235
*RES
1 la_oenb[57] *646:io_la_oenb[57] 22.427 
*END

*D_NET *481 0.00354408
*CONN
*P la_oenb[58] I
*I *646:io_la_oenb[58] I *D CaravelTopLevel
*CAP
1 la_oenb[58] 0.00115961
2 *646:io_la_oenb[58] 0.00115961
3 la_data_out[58] *646:io_la_oenb[58] 0.000209108
4 la_data_out[59] *646:io_la_oenb[58] 5.38776e-05
5 *646:io_la_data_in[58] *646:io_la_oenb[58] 0.00026221
6 *646:io_la_data_in[59] *646:io_la_oenb[58] 0.000699666
7 *646:io_la_oenb[57] *646:io_la_oenb[58] 0
*RES
1 la_oenb[58] *646:io_la_oenb[58] 21.6272 
*END

*D_NET *482 0.0035552
*CONN
*P la_oenb[59] I
*I *646:io_la_oenb[59] I *D CaravelTopLevel
*CAP
1 la_oenb[59] 0.00118658
2 *646:io_la_oenb[59] 0.00118658
3 la_data_out[59] *646:io_la_oenb[59] 0.000775243
4 *646:io_la_data_in[59] *646:io_la_oenb[59] 9.55055e-05
5 *646:io_la_data_in[60] *646:io_la_oenb[59] 0.000311287
*RES
1 la_oenb[59] *646:io_la_oenb[59] 22.7873 
*END

*D_NET *483 0.00821781
*CONN
*P la_oenb[5] I
*I *646:io_la_oenb[5] I *D CaravelTopLevel
*CAP
1 la_oenb[5] 0.000607147
2 *646:io_la_oenb[5] 0.00208067
3 *483:7 0.00268782
4 *646:io_la_oenb[5] *505:11 0.00109064
5 la_data_out[4] *646:io_la_oenb[5] 0.000441175
6 la_data_out[8] *646:io_la_oenb[5] 0
7 *646:io_la_data_in[7] *646:io_la_oenb[5] 0.000853457
8 *646:io_la_oenb[2] *483:7 0
9 *333:13 *646:io_la_oenb[5] 0.000456907
*RES
1 la_oenb[5] *483:7 15.6429 
2 *483:7 *646:io_la_oenb[5] 49.2054 
*END

*D_NET *484 0.0034169
*CONN
*P la_oenb[60] I
*I *646:io_la_oenb[60] I *D CaravelTopLevel
*CAP
1 la_oenb[60] 0.00142896
2 *646:io_la_oenb[60] 0.00142896
3 *646:io_la_oenb[60] *646:io_la_oenb[61] 0
4 la_data_out[60] *646:io_la_oenb[60] 0.000558978
5 la_data_out[61] *646:io_la_oenb[60] 0
*RES
1 la_oenb[60] *646:io_la_oenb[60] 21.6212 
*END

*D_NET *485 0.00371725
*CONN
*P la_oenb[61] I
*I *646:io_la_oenb[61] I *D CaravelTopLevel
*CAP
1 la_oenb[61] 0.00135549
2 *646:io_la_oenb[61] 0.00135549
3 la_data_out[61] *646:io_la_oenb[61] 0.00100627
4 *646:io_la_oenb[60] *646:io_la_oenb[61] 0
*RES
1 la_oenb[61] *646:io_la_oenb[61] 23.1476 
*END

*D_NET *486 0.00478823
*CONN
*P la_oenb[62] I
*I *646:io_la_oenb[62] I *D CaravelTopLevel
*CAP
1 la_oenb[62] 0.00124309
2 *646:io_la_oenb[62] 0.00124309
3 *646:io_la_oenb[62] *646:io_la_oenb[63] 0.00018297
4 la_data_out[62] *646:io_la_oenb[62] 0.00125784
5 *646:io_la_data_in[62] *646:io_la_oenb[62] 0.000669925
6 *646:io_la_data_in[63] *646:io_la_oenb[62] 0.000191302
7 *646:io_la_data_in[64] *646:io_la_oenb[62] 0
*RES
1 la_oenb[62] *646:io_la_oenb[62] 21.9815 
*END

*D_NET *487 0.00498778
*CONN
*P la_oenb[63] I
*I *646:io_la_oenb[63] I *D CaravelTopLevel
*CAP
1 la_oenb[63] 0.00128537
2 *646:io_la_oenb[63] 0.00128537
3 *646:io_la_oenb[63] *646:io_la_oenb[64] 0.000324656
4 la_data_out[64] *646:io_la_oenb[63] 0.000869621
5 *646:io_la_data_in[63] *646:io_la_oenb[63] 0.000751224
6 *646:io_la_data_in[64] *646:io_la_oenb[63] 0.000288561
7 *646:io_la_oenb[62] *646:io_la_oenb[63] 0.00018297
*RES
1 la_oenb[63] *646:io_la_oenb[63] 22.1352 
*END

*D_NET *488 0.00562582
*CONN
*P la_oenb[64] I
*I *646:io_la_oenb[64] I *D CaravelTopLevel
*CAP
1 la_oenb[64] 0.0011598
2 *646:io_la_oenb[64] 0.0011598
3 la_data_out[64] *646:io_la_oenb[64] 0.000388585
4 la_data_out[65] *646:io_la_oenb[64] 0.00100476
5 *646:io_la_data_in[65] *646:io_la_oenb[64] 0.00154921
6 *646:io_la_data_in[66] *646:io_la_oenb[64] 3.90154e-05
7 *646:io_la_oenb[63] *646:io_la_oenb[64] 0.000324656
*RES
1 la_oenb[64] *646:io_la_oenb[64] 22.9585 
*END

*D_NET *489 0.0059934
*CONN
*P la_oenb[65] I
*I *646:io_la_oenb[65] I *D CaravelTopLevel
*CAP
1 la_oenb[65] 0.00109194
2 *646:io_la_oenb[65] 0.00109194
3 *646:io_la_oenb[65] *646:io_la_oenb[66] 0.000553421
4 la_data_out[64] *646:io_la_oenb[65] 1.8957e-06
5 la_data_out[65] *646:io_la_oenb[65] 0.00158909
6 la_data_out[66] *646:io_la_oenb[65] 1.99932e-05
7 *646:io_la_data_in[66] *646:io_la_oenb[65] 0.00164511
*RES
1 la_oenb[65] *646:io_la_oenb[65] 22.558 
*END

*D_NET *490 0.00650651
*CONN
*P la_oenb[66] I
*I *646:io_la_oenb[66] I *D CaravelTopLevel
*CAP
1 la_oenb[66] 0.00119687
2 *646:io_la_oenb[66] 0.00119687
3 la_data_out[66] *646:io_la_oenb[66] 0.00182212
4 la_data_out[67] *646:io_la_oenb[66] 0.00125204
5 *646:io_la_data_in[66] *646:io_la_oenb[66] 0.000289192
6 *646:io_la_data_in[67] *646:io_la_oenb[66] 0.000110467
7 *646:io_la_data_in[68] *646:io_la_oenb[66] 8.55307e-05
8 *646:io_la_oenb[65] *646:io_la_oenb[66] 0.000553421
*RES
1 la_oenb[66] *646:io_la_oenb[66] 23.3195 
*END

*D_NET *491 0.00543815
*CONN
*P la_oenb[67] I
*I *646:io_la_oenb[67] I *D CaravelTopLevel
*CAP
1 la_oenb[67] 0.00160055
2 *646:io_la_oenb[67] 0.00160055
3 la_data_out[66] *646:io_la_oenb[67] 1.93633e-05
4 la_data_out[67] *646:io_la_oenb[67] 0.00180514
5 la_data_out[68] *646:io_la_oenb[67] 0.000191302
6 *646:io_la_data_in[69] *646:io_la_oenb[67] 0.000221242
*RES
1 la_oenb[67] *646:io_la_oenb[67] 22.9184 
*END

*D_NET *492 0.00705987
*CONN
*P la_oenb[68] I
*I *646:io_la_oenb[68] I *D CaravelTopLevel
*CAP
1 la_oenb[68] 0.00117935
2 *646:io_la_oenb[68] 0.00117935
3 *646:io_la_oenb[68] *646:io_la_oenb[69] 0.000919444
4 la_data_out[68] *646:io_la_oenb[68] 0.00193641
5 *646:io_la_data_in[68] *646:io_la_oenb[68] 0.00135703
6 *646:io_la_data_in[69] *646:io_la_oenb[68] 0.000117884
7 *646:io_la_data_in[70] *646:io_la_oenb[68] 0.000370409
*RES
1 la_oenb[68] *646:io_la_oenb[68] 23.6792 
*END

*D_NET *493 0.00576706
*CONN
*P la_oenb[69] I
*I *646:io_la_oenb[69] I *D CaravelTopLevel
*CAP
1 la_oenb[69] 0.00141095
2 *646:io_la_oenb[69] 0.00141095
3 *646:io_la_oenb[69] *646:io_la_oenb[70] 0.000876268
4 la_data_out[70] *646:io_la_oenb[69] 0.000762376
5 *646:io_la_data_in[70] *646:io_la_oenb[69] 0.000387083
6 *646:io_la_oenb[68] *646:io_la_oenb[69] 0.000919444
*RES
1 la_oenb[69] *646:io_la_oenb[69] 25.5714 
*END

*D_NET *494 0.010684
*CONN
*P la_oenb[6] I
*I *646:io_la_oenb[6] I *D CaravelTopLevel
*CAP
1 la_oenb[6] 0.00299096
2 *646:io_la_oenb[6] 0.00299096
3 la_data_out[4] *646:io_la_oenb[6] 0.000174428
4 *646:io_la_data_in[4] *646:io_la_oenb[6] 0.000119725
5 *646:io_la_data_in[7] *646:io_la_oenb[6] 0.00409382
6 *646:io_la_oenb[3] *646:io_la_oenb[6] 0
7 *388:13 *646:io_la_oenb[6] 0.000314072
*RES
1 la_oenb[6] *646:io_la_oenb[6] 26.4592 
*END

*D_NET *495 0.0075248
*CONN
*P la_oenb[70] I
*I *646:io_la_oenb[70] I *D CaravelTopLevel
*CAP
1 la_oenb[70] 0.00134207
2 *646:io_la_oenb[70] 0.00134207
3 la_data_out[70] *646:io_la_oenb[70] 6.17581e-05
4 la_data_out[71] *646:io_la_oenb[70] 0.00158678
5 *646:io_la_data_in[70] *646:io_la_oenb[70] 0.0014369
6 *646:io_la_data_in[71] *646:io_la_oenb[70] 0.000371289
7 *646:io_la_data_in[72] *646:io_la_oenb[70] 0.000507668
8 *646:io_la_oenb[69] *646:io_la_oenb[70] 0.000876268
*RES
1 la_oenb[70] *646:io_la_oenb[70] 24.9668 
*END

*D_NET *496 0.00590584
*CONN
*P la_oenb[71] I
*I *646:io_la_oenb[71] I *D CaravelTopLevel
*CAP
1 la_oenb[71] 0.00169243
2 *646:io_la_oenb[71] 0.00169243
3 *646:io_la_data_in[70] *646:io_la_oenb[71] 6.90976e-05
4 *646:io_la_data_in[71] *646:io_la_oenb[71] 0.00171668
5 *646:io_la_data_in[72] *646:io_la_oenb[71] 0.000735218
*RES
1 la_oenb[71] *646:io_la_oenb[71] 23.639 
*END

*D_NET *497 0.00654799
*CONN
*P la_oenb[72] I
*I *646:io_la_oenb[72] I *D CaravelTopLevel
*CAP
1 la_oenb[72] 0.00184645
2 *646:io_la_oenb[72] 0.00184645
3 *646:io_la_oenb[72] *646:io_la_oenb[73] 0.000166829
4 *646:io_la_oenb[72] *646:io_la_oenb[74] 0
5 la_data_out[72] *646:io_la_oenb[72] 0.00240935
6 la_data_out[74] *646:io_la_oenb[72] 0.000278903
*RES
1 la_oenb[72] *646:io_la_oenb[72] 26.2213 
*END

*D_NET *498 0.0084386
*CONN
*P la_oenb[73] I
*I *646:io_la_oenb[73] I *D CaravelTopLevel
*CAP
1 la_oenb[73] 0.00119632
2 *646:io_la_oenb[73] 0.00119632
3 la_data_out[72] *646:io_la_oenb[73] 0.000776393
4 la_data_out[73] *646:io_la_oenb[73] 0.000117884
5 la_data_out[74] *646:io_la_oenb[73] 0.00206008
6 *646:io_la_data_in[73] *646:io_la_oenb[73] 0.00195959
7 *646:io_la_data_in[75] *646:io_la_oenb[73] 0.000965197
8 *646:io_la_oenb[72] *646:io_la_oenb[73] 0.000166829
*RES
1 la_oenb[73] *646:io_la_oenb[73] 25.2232 
*END

*D_NET *499 0.00721908
*CONN
*P la_oenb[74] I
*I *646:io_la_oenb[74] I *D CaravelTopLevel
*CAP
1 la_oenb[74] 0.00153164
2 *646:io_la_oenb[74] 0.00153164
3 la_data_out[73] *646:io_la_oenb[74] 0.000912183
4 *646:io_la_data_in[74] *646:io_la_oenb[74] 0.0020368
5 *646:io_la_data_in[75] *646:io_la_oenb[74] 0.00120683
6 *646:io_la_oenb[72] *646:io_la_oenb[74] 0
*RES
1 la_oenb[74] *646:io_la_oenb[74] 24.2156 
*END

*D_NET *500 0.00904708
*CONN
*P la_oenb[75] I
*I *646:io_la_oenb[75] I *D CaravelTopLevel
*CAP
1 la_oenb[75] 0.00139623
2 *646:io_la_oenb[75] 0.00139623
3 *646:io_la_oenb[75] *646:io_la_oenb[77] 3.39089e-05
4 la_data_out[74] *646:io_la_oenb[75] 0.000737391
5 la_data_out[75] *646:io_la_oenb[75] 0.0023845
6 la_data_out[76] *646:io_la_oenb[75] 0.00228884
7 *646:io_la_data_in[75] *646:io_la_oenb[75] 0.000114453
8 *646:io_la_data_in[76] *646:io_la_oenb[75] 0.000695539
*RES
1 la_oenb[75] *646:io_la_oenb[75] 27.0998 
*END

*D_NET *501 0.00770176
*CONN
*P la_oenb[76] I
*I *646:io_la_oenb[76] I *D CaravelTopLevel
*CAP
1 la_oenb[76] 0.0015771
2 *646:io_la_oenb[76] 0.0015771
3 *646:io_la_oenb[76] *646:io_la_oenb[77] 0.00181343
4 *646:io_la_oenb[76] *646:io_la_oenb[78] 0
5 la_data_out[76] *646:io_la_oenb[76] 0.00125947
6 la_data_out[77] *646:io_la_oenb[76] 0.000293672
7 la_data_out[78] *646:io_la_oenb[76] 0.000725622
8 *646:io_la_data_in[75] *646:io_la_oenb[76] 0.000455363
9 *646:io_la_data_in[79] *646:io_la_oenb[76] 0
*RES
1 la_oenb[76] *646:io_la_oenb[76] 24.5134 
*END

*D_NET *502 0.00893509
*CONN
*P la_oenb[77] I
*I *646:io_la_oenb[77] I *D CaravelTopLevel
*CAP
1 la_oenb[77] 0.00143783
2 *646:io_la_oenb[77] 0.00143783
3 *646:io_la_oenb[77] *646:io_la_oenb[79] 0.000324656
4 la_data_out[77] *646:io_la_oenb[77] 0.00297721
5 la_data_out[78] *646:io_la_oenb[77] 0.000910215
6 *646:io_la_oenb[75] *646:io_la_oenb[77] 3.39089e-05
7 *646:io_la_oenb[76] *646:io_la_oenb[77] 0.00181343
*RES
1 la_oenb[77] *646:io_la_oenb[77] 24.7921 
*END

*D_NET *503 0.00571948
*CONN
*P la_oenb[78] I
*I *646:io_la_oenb[78] I *D CaravelTopLevel
*CAP
1 la_oenb[78] 0.00257283
2 *646:io_la_oenb[78] 0.00257283
3 *646:io_la_oenb[78] *646:io_la_oenb[80] 0.000306237
4 la_data_out[76] *646:io_la_oenb[78] 0
5 la_data_out[80] *646:io_la_oenb[78] 0.000267589
6 *646:io_la_data_in[77] *646:io_la_oenb[78] 0
7 *646:io_la_data_in[79] *646:io_la_oenb[78] 0
8 *646:io_la_data_in[81] *646:io_la_oenb[78] 0
9 *646:io_la_oenb[76] *646:io_la_oenb[78] 0
*RES
1 la_oenb[78] *646:io_la_oenb[78] 25.3026 
*END

*D_NET *504 0.00811826
*CONN
*P la_oenb[79] I
*I *646:io_la_oenb[79] I *D CaravelTopLevel
*CAP
1 la_oenb[79] 0.00200147
2 *646:io_la_oenb[79] 0.00200147
3 la_data_out[78] *646:io_la_oenb[79] 6.4459e-05
4 la_data_out[79] *646:io_la_oenb[79] 0
5 *646:io_la_data_in[80] *646:io_la_oenb[79] 0.0032425
6 *646:io_la_data_in[82] *646:io_la_oenb[79] 0.000483702
7 *646:io_la_oenb[77] *646:io_la_oenb[79] 0.000324656
*RES
1 la_oenb[79] *646:io_la_oenb[79] 25.1524 
*END

*D_NET *505 0.00744941
*CONN
*P la_oenb[7] I
*I *646:io_la_oenb[7] I *D CaravelTopLevel
*CAP
1 la_oenb[7] 0.00100305
2 *646:io_la_oenb[7] 0.00140653
3 *505:11 0.00240958
4 *646:io_la_data_in[10] *646:io_la_oenb[7] 0.000113045
5 *646:io_la_data_in[5] *505:11 9.96942e-05
6 *646:io_la_data_in[7] *646:io_la_oenb[7] 0.000389459
7 *646:io_la_data_in[7] *505:11 0.000103646
8 *646:io_la_data_in[8] *646:io_la_oenb[7] 0.00016313
9 *646:io_la_oenb[5] *505:11 0.00109064
10 *388:13 *646:io_la_oenb[7] 0.000670634
*RES
1 la_oenb[7] *505:11 27.5893 
2 *505:11 *646:io_la_oenb[7] 36.0625 
*END

*D_NET *506 0.00835766
*CONN
*P la_oenb[80] I
*I *646:io_la_oenb[80] I *D CaravelTopLevel
*CAP
1 la_oenb[80] 0.00160167
2 *646:io_la_oenb[80] 0.00160167
3 la_data_out[78] *646:io_la_oenb[80] 0
4 la_data_out[80] *646:io_la_oenb[80] 0.00182416
5 la_data_out[81] *646:io_la_oenb[80] 0.00270142
6 la_data_out[82] *646:io_la_oenb[80] 0.000213244
7 *646:io_la_data_in[81] *646:io_la_oenb[80] 0
8 *646:io_la_data_in[83] *646:io_la_oenb[80] 0.00010926
9 *646:io_la_oenb[78] *646:io_la_oenb[80] 0.000306237
*RES
1 la_oenb[80] *646:io_la_oenb[80] 26.2682 
*END

*D_NET *507 0.00798321
*CONN
*P la_oenb[81] I
*I *646:io_la_oenb[81] I *D CaravelTopLevel
*CAP
1 la_oenb[81] 0.00218885
2 *646:io_la_oenb[81] 0.00218885
3 *646:io_la_oenb[81] *509:13 0.000139724
4 *646:io_la_data_in[81] *646:io_la_oenb[81] 0.000105275
5 *646:io_la_data_in[82] *646:io_la_oenb[81] 0.00336052
*RES
1 la_oenb[81] *646:io_la_oenb[81] 28.7146 
*END

*D_NET *508 0.00927508
*CONN
*P la_oenb[82] I
*I *646:io_la_oenb[82] I *D CaravelTopLevel
*CAP
1 la_oenb[82] 0.00197678
2 *646:io_la_oenb[82] 0.00197678
3 la_data_out[83] *646:io_la_oenb[82] 0.00302151
4 la_data_out[85] *646:io_la_oenb[82] 0
5 *646:io_la_data_in[84] *646:io_la_oenb[82] 0.0019424
6 *646:io_la_data_in[85] *646:io_la_oenb[82] 0.000357608
*RES
1 la_oenb[82] *646:io_la_oenb[82] 25.6569 
*END

*D_NET *509 0.00771724
*CONN
*P la_oenb[83] I
*I *646:io_la_oenb[83] I *D CaravelTopLevel
*CAP
1 la_oenb[83] 0.00200211
2 *646:io_la_oenb[83] 0.000720323
3 *509:13 0.00272243
4 *509:13 *646:io_la_oenb[84] 0.000209261
5 *509:13 *511:13 0.000931481
6 la_data_out[81] *646:io_la_oenb[83] 0
7 *646:io_la_data_in[82] *509:13 0.000101211
8 *646:io_la_data_in[85] *509:13 0.000890704
9 *646:io_la_oenb[81] *509:13 0.000139724
*RES
1 la_oenb[83] *509:13 49.7143 
2 *509:13 *646:io_la_oenb[83] 13.5982 
*END

*D_NET *510 0.00932433
*CONN
*P la_oenb[84] I
*I *646:io_la_oenb[84] I *D CaravelTopLevel
*CAP
1 la_oenb[84] 0.00223553
2 *646:io_la_oenb[84] 0.00223553
3 la_data_out[82] *646:io_la_oenb[84] 0
4 la_data_out[84] *646:io_la_oenb[84] 0
5 *646:io_la_data_in[82] *646:io_la_oenb[84] 0
6 *646:io_la_data_in[83] *646:io_la_oenb[84] 0.000788308
7 *646:io_la_data_in[85] *646:io_la_oenb[84] 0.0038557
8 *509:13 *646:io_la_oenb[84] 0.000209261
*RES
1 la_oenb[84] *646:io_la_oenb[84] 30.705 
*END

*D_NET *511 0.00808188
*CONN
*P la_oenb[85] I
*I *646:io_la_oenb[85] I *D CaravelTopLevel
*CAP
1 la_oenb[85] 0.00183105
2 *646:io_la_oenb[85] 0.000741862
3 *511:13 0.00257292
4 *511:13 *646:io_la_oenb[86] 0.000676831
5 *511:13 *513:11 0.000843861
6 la_data_out[83] *646:io_la_oenb[85] 0
7 *646:io_la_data_in[83] *646:io_la_oenb[85] 0
8 *646:io_la_data_in[85] *511:13 0.000483871
9 *509:13 *511:13 0.000931481
*RES
1 la_oenb[85] *511:13 48.8929 
2 *511:13 *646:io_la_oenb[85] 14.1161 
*END

*D_NET *512 0.00921707
*CONN
*P la_oenb[86] I
*I *646:io_la_oenb[86] I *D CaravelTopLevel
*CAP
1 la_oenb[86] 0.00301067
2 *646:io_la_oenb[86] 0.00301067
3 *646:io_la_oenb[86] *513:11 0.00120302
4 la_data_out[84] *646:io_la_oenb[86] 0
5 *646:io_la_data_in[84] *646:io_la_oenb[86] 0
6 *646:io_la_data_in[85] *646:io_la_oenb[86] 0.00131588
7 *646:io_la_data_in[87] *646:io_la_oenb[86] 0
8 *511:13 *646:io_la_oenb[86] 0.000676831
*RES
1 la_oenb[86] *646:io_la_oenb[86] 29.9397 
*END

*D_NET *513 0.00787355
*CONN
*P la_oenb[87] I
*I *646:io_la_oenb[87] I *D CaravelTopLevel
*CAP
1 la_oenb[87] 0.00213321
2 *646:io_la_oenb[87] 0.000760915
3 *513:11 0.00289413
4 la_data_out[85] *646:io_la_oenb[87] 0
5 *646:io_la_data_in[85] *646:io_la_oenb[87] 3.84088e-05
6 *646:io_la_oenb[86] *513:11 0.00120302
7 *511:13 *513:11 0.000843861
*RES
1 la_oenb[87] *513:11 47.6786 
2 *513:11 *646:io_la_oenb[87] 19.3304 
*END

*D_NET *514 0.00731423
*CONN
*P la_oenb[88] I
*I *646:io_la_oenb[88] I *D CaravelTopLevel
*CAP
1 la_oenb[88] 0.000392267
2 *646:io_la_oenb[88] 0.00044872
3 *514:13 0.00236804
4 *514:9 0.00231159
5 la_data_out[88] *646:io_la_oenb[88] 0
6 la_data_out[88] *514:9 0
7 *646:io_la_data_in[86] *646:io_la_oenb[88] 0
8 *389:13 *514:13 0.00179361
*RES
1 la_oenb[88] *514:9 12.1607 
2 *514:9 *514:13 46.1071 
3 *514:13 *646:io_la_oenb[88] 8.13393 
*END

*D_NET *515 0.0119801
*CONN
*P la_oenb[89] I
*I *646:io_la_oenb[89] I *D CaravelTopLevel
*CAP
1 la_oenb[89] 0.00152774
2 *646:io_la_oenb[89] 0.00152774
3 *646:io_la_oenb[89] *646:io_la_oenb[92] 0.000160736
4 la_data_out[88] *646:io_la_oenb[89] 0.000150509
5 la_data_out[89] *646:io_la_oenb[89] 0.00029855
6 la_data_out[92] *646:io_la_oenb[89] 0.000231359
7 *646:io_la_data_in[87] *646:io_la_oenb[89] 7.96245e-05
8 *646:io_la_data_in[89] *646:io_la_oenb[89] 0.0037027
9 *646:io_la_data_in[90] *646:io_la_oenb[89] 0.00430116
*RES
1 la_oenb[89] *646:io_la_oenb[89] 28.2644 
*END

*D_NET *516 0.00709746
*CONN
*P la_oenb[8] I
*I *646:io_la_oenb[8] I *D CaravelTopLevel
*CAP
1 la_oenb[8] 0.00305156
2 *646:io_la_oenb[8] 0.00305156
3 *646:io_la_oenb[8] *646:io_la_oenb[9] 0.000386038
4 *646:io_la_data_in[11] *646:io_la_oenb[8] 0
5 *646:io_la_oenb[10] *646:io_la_oenb[8] 0.000608292
*RES
1 la_oenb[8] *646:io_la_oenb[8] 29.6515 
*END

*D_NET *517 0.0101199
*CONN
*P la_oenb[90] I
*I *646:io_la_oenb[90] I *D CaravelTopLevel
*CAP
1 la_oenb[90] 0.000206163
2 *646:io_la_oenb[90] 0.000539551
3 *517:11 0.00183926
4 *517:7 0.00150587
5 *517:11 *519:13 0.00157497
6 *646:io_la_data_in[88] *646:io_la_oenb[90] 0
7 *389:13 *517:11 0.00391981
8 *392:13 *517:11 0.000534222
*RES
1 la_oenb[90] *517:7 8.35714 
2 *517:7 *517:11 49.3929 
3 *517:11 *646:io_la_oenb[90] 9.5625 
*END

*D_NET *518 0.00985792
*CONN
*P la_oenb[91] I
*I *646:io_la_oenb[91] I *D CaravelTopLevel
*CAP
1 la_oenb[91] 0.0026753
2 *646:io_la_oenb[91] 0.0026753
3 la_data_out[91] *646:io_la_oenb[91] 0.00450731
4 la_data_out[92] *646:io_la_oenb[91] 0
*RES
1 la_oenb[91] *646:io_la_oenb[91] 28.6247 
*END

*D_NET *519 0.0104111
*CONN
*P la_oenb[92] I
*I *646:io_la_oenb[92] I *D CaravelTopLevel
*CAP
1 la_oenb[92] 0.000308325
2 *646:io_la_oenb[92] 0.000483132
3 *519:13 0.00147686
4 *519:9 0.00130205
5 *519:9 *646:io_la_oenb[95] 0.000153762
6 *519:13 *520:9 0.00326514
7 la_data_out[92] *519:9 0
8 *646:io_la_data_in[90] *646:io_la_oenb[92] 0
9 *646:io_la_oenb[89] *646:io_la_oenb[92] 0.000160736
10 *392:13 *519:13 0.00168607
11 *517:11 *519:13 0.00157497
*RES
1 la_oenb[92] *519:9 10.6429 
2 *519:9 *519:13 48.5714 
3 *519:13 *646:io_la_oenb[92] 10.2768 
*END

*D_NET *520 0.00910191
*CONN
*P la_oenb[93] I
*I *646:io_la_oenb[93] I *D CaravelTopLevel
*CAP
1 la_oenb[93] 0.000163503
2 *646:io_la_oenb[93] 0.000509325
3 *520:9 0.00233966
4 *520:7 0.00199383
5 *520:9 *646:io_la_oenb[95] 0.000218648
6 *646:io_la_data_in[97] *520:7 0.00018037
7 *392:9 *646:io_la_oenb[93] 0
8 *392:13 *520:9 0.000431434
9 *519:13 *520:9 0.00326514
*RES
1 la_oenb[93] *520:7 7.75 
2 *520:7 *520:9 49.4107 
3 *520:9 *646:io_la_oenb[93] 13.8482 
*END

*D_NET *521 0.0108981
*CONN
*P la_oenb[94] I
*I *646:io_la_oenb[94] I *D CaravelTopLevel
*CAP
1 la_oenb[94] 0.00289042
2 *646:io_la_oenb[94] 0.00289042
3 *646:io_la_oenb[94] *646:io_la_oenb[97] 0
4 *646:io_la_data_in[94] *646:io_la_oenb[94] 0.00412063
5 *646:io_la_data_in[95] *646:io_la_oenb[94] 0.000522687
6 *646:io_la_data_in[98] *646:io_la_oenb[94] 0.000473929
*RES
1 la_oenb[94] *646:io_la_oenb[94] 30.4576 
*END

*D_NET *522 0.00852632
*CONN
*P la_oenb[95] I
*I *646:io_la_oenb[95] I *D CaravelTopLevel
*CAP
1 la_oenb[95] 0.000849379
2 *646:io_la_oenb[95] 0.00215374
3 *522:13 0.00300311
4 la_data_out[92] *646:io_la_oenb[95] 0
5 la_data_out[97] *522:13 0.000231426
6 *268:11 *646:io_la_oenb[95] 0
7 *268:11 *522:13 0.00191625
8 *394:11 *646:io_la_oenb[95] 0
9 *519:9 *646:io_la_oenb[95] 0.000153762
10 *520:9 *646:io_la_oenb[95] 0.000218648
*RES
1 la_oenb[95] *522:13 25.7054 
2 *522:13 *646:io_la_oenb[95] 47.3214 
*END

*D_NET *523 0.0121975
*CONN
*P la_oenb[96] I
*I *646:io_la_oenb[96] I *D CaravelTopLevel
*CAP
1 la_oenb[96] 0.00226388
2 *646:io_la_oenb[96] 0.00226388
3 la_data_out[96] *646:io_la_oenb[96] 0.00142027
4 la_data_out[98] *646:io_la_oenb[96] 0.00305068
5 *646:io_la_data_in[100] *646:io_la_oenb[96] 0.000293184
6 *646:io_la_data_in[95] *646:io_la_oenb[96] 0.00290564
7 *273:9 *646:io_la_oenb[96] 0
*RES
1 la_oenb[96] *646:io_la_oenb[96] 28.7959 
*END

*D_NET *524 0.01405
*CONN
*P la_oenb[97] I
*I *646:io_la_oenb[97] I *D CaravelTopLevel
*CAP
1 la_oenb[97] 0.00012465
2 *646:io_la_oenb[97] 0.000639198
3 *524:11 0.00147259
4 *524:9 0.000958043
5 *524:11 *525:15 0.00421112
6 la_data_out[94] *646:io_la_oenb[97] 0.000301783
7 la_data_out[97] *524:11 0.000939101
8 *646:io_la_data_in[98] *646:io_la_oenb[97] 0
9 *646:io_la_oenb[100] *524:11 4.35846e-05
10 *646:io_la_oenb[94] *646:io_la_oenb[97] 0
11 *268:11 *524:11 0.0044729
12 *394:11 *524:11 0.000781819
13 *401:9 *524:11 0.000105179
*RES
1 la_oenb[97] *524:9 5.66071 
2 *524:9 *524:11 52.6964 
3 *524:11 *646:io_la_oenb[97] 18.7232 
*END

*D_NET *525 0.0141043
*CONN
*P la_oenb[98] I
*I *646:io_la_oenb[98] I *D CaravelTopLevel
*CAP
1 la_oenb[98] 0.000218338
2 *646:io_la_oenb[98] 0.000700559
3 *525:15 0.00192439
4 *525:13 0.00144217
5 *525:15 *526:11 0.00394529
6 la_data_out[101] *525:15 0.000111431
7 la_data_out[97] *525:15 0.000623595
8 *646:io_la_data_in[95] *646:io_la_oenb[98] 0
9 *646:io_la_data_in[96] *525:15 0.000447141
10 *646:io_la_oenb[101] *525:15 0.000179387
11 *275:9 *525:13 2.66242e-05
12 *394:11 *525:15 0.000274288
13 *401:9 *525:15 0
14 *524:11 *525:15 0.00421112
*RES
1 la_oenb[98] *525:13 8.94643 
2 *525:13 *525:15 53.5179 
3 *525:15 *646:io_la_oenb[98] 17.7946 
*END

*D_NET *526 0.0128757
*CONN
*P la_oenb[99] I
*I *646:io_la_oenb[99] I *D CaravelTopLevel
*CAP
1 la_oenb[99] 0.000160712
2 *646:io_la_oenb[99] 0.000610179
3 *526:11 0.00234823
4 *526:9 0.00189876
5 la_data_out[101] *526:11 0.000240316
6 la_data_out[96] *646:io_la_oenb[99] 0.000516486
7 la_data_out[97] *526:11 0.0007688
8 *646:io_la_oenb[101] *526:11 0.00097352
9 *275:11 *526:11 0.00141342
10 *401:9 *526:11 0
11 *525:15 *526:11 0.00394529
*RES
1 la_oenb[99] *526:9 6.48214 
2 *526:9 *526:11 52.2857 
3 *526:11 *646:io_la_oenb[99] 19.3304 
*END

*D_NET *527 0.00683709
*CONN
*P la_oenb[9] I
*I *646:io_la_oenb[9] I *D CaravelTopLevel
*CAP
1 la_oenb[9] 0.00219506
2 *646:io_la_oenb[9] 0.00219506
3 la_data_out[10] *646:io_la_oenb[9] 0.00111803
4 la_data_out[11] *646:io_la_oenb[9] 0.000493006
5 la_data_out[7] *646:io_la_oenb[9] 0
6 *646:io_la_data_in[12] *646:io_la_oenb[9] 0.000112284
7 *646:io_la_data_in[9] *646:io_la_oenb[9] 0
8 *646:io_la_oenb[10] *646:io_la_oenb[9] 0.000337615
9 *646:io_la_oenb[8] *646:io_la_oenb[9] 0.000386038
*RES
1 la_oenb[9] *646:io_la_oenb[9] 27.3275 
*END

*D_NET *528 0.0207131
*CONN
*P user_clock2 I
*I *646:io_user_clock2 I *D CaravelTopLevel
*CAP
1 user_clock2 0.00026088
2 *646:io_user_clock2 0.00054774
3 *528:11 0.00178514
4 *528:9 0.00149828
5 *528:11 *529:11 0.00824321
6 *528:11 *530:11 0.00789373
7 *646:io_la_data_in[123] *646:io_user_clock2 0
8 *302:11 *528:11 0.000484099
*RES
1 user_clock2 *528:9 9.60714 
2 *528:9 *528:11 82.6786 
3 *528:11 *646:io_user_clock2 14.1696 
*END

*D_NET *529 0.0158616
*CONN
*P user_irq[0] O
*I *646:io_user_irq[0] O *D CaravelTopLevel
*CAP
1 user_irq[0] 0.000229407
2 *646:io_user_irq[0] 0.000434074
3 *529:11 0.00307014
4 *529:9 0.00327481
5 user_irq[0] user_irq[1] 0
6 *529:9 *530:9 0
7 *529:11 *530:11 0.00036194
8 *646:io_la_data_in[123] *529:9 0.000248032
9 *528:11 *529:11 0.00824321
*RES
1 *646:io_user_irq[0] *529:9 13.8661 
2 *529:9 *529:11 83.9107 
3 *529:11 user_irq[0] 8.96429 
*END

*D_NET *530 0.0183548
*CONN
*P user_irq[1] O
*I *646:io_user_irq[1] O *D CaravelTopLevel
*CAP
1 user_irq[1] 0.000304721
2 *646:io_user_irq[1] 0.000455687
3 *530:11 0.00240162
4 *530:9 0.00255259
5 la_data_out[123] *530:9 0.000107181
6 user_irq[0] user_irq[1] 0
7 *646:io_la_data_in[123] *530:9 0
8 *302:11 *530:11 0.00427728
9 *528:11 *530:11 0.00789373
10 *529:9 *530:9 0
11 *529:11 *530:11 0.00036194
*RES
1 *646:io_user_irq[1] *530:9 13.2411 
2 *530:9 *530:11 83.9107 
3 *530:11 user_irq[1] 10.5357 
*END

*D_NET *531 0.0154599
*CONN
*P user_irq[2] O
*I *646:io_user_irq[2] O *D CaravelTopLevel
*CAP
1 user_irq[2] 0.00439458
2 *646:io_user_irq[2] 0.00439458
3 *646:io_la_data_in[127] user_irq[2] 0.00604462
4 *646:io_la_oenb[127] user_irq[2] 0.00062613
*RES
1 *646:io_user_irq[2] user_irq[2] 35.2044 
*END

*D_NET *540 0.0189735
*CONN
*P wb_clk_i I
*I *646:io_wb_clk_i I *D CaravelTopLevel
*CAP
1 wb_clk_i 0.00483901
2 *646:io_wb_clk_i 0.00483901
3 *646:io_wb_clk_i wbs_ack_o 0.00112831
4 *646:io_wb_clk_i wbs_dat_o[0] 0.00489331
5 *646:io_wb_clk_i *646:io_wb_rst_i 0
6 *646:io_wb_clk_i *646:io_wbs_adr_i[2] 0.000742497
7 *646:io_wb_clk_i *646:io_wbs_dat_i[0] 0
8 *646:io_wb_clk_i *575:9 0.00140034
9 *646:io_wb_clk_i *644:9 0.00113106
*RES
1 wb_clk_i *646:io_wb_clk_i 34.1703 
*END

*D_NET *541 0.015994
*CONN
*P wb_rst_i I
*I *646:io_wb_rst_i I *D CaravelTopLevel
*CAP
1 wb_rst_i 0.0048111
2 *646:io_wb_rst_i 0.0048111
3 *646:io_wb_rst_i *646:io_wbs_dat_i[0] 0.00598752
4 *646:io_wb_rst_i *642:7 0.000384279
5 *646:io_wb_clk_i *646:io_wb_rst_i 0
*RES
1 wb_rst_i *646:io_wb_rst_i 35.2044 
*END

*D_NET *542 0.0152985
*CONN
*P wbs_ack_o O
*I *646:io_wbs_ack_o O *D CaravelTopLevel
*CAP
1 wbs_ack_o 0.00472147
2 *646:io_wbs_ack_o 0.00472147
3 wbs_ack_o wbs_dat_o[0] 0.00214412
4 wbs_ack_o *646:io_wbs_dat_i[2] 0.00189805
5 wbs_ack_o *587:9 0.000508093
6 wbs_ack_o *645:9 0.000177031
7 *646:io_wb_clk_i wbs_ack_o 0.00112831
*RES
1 *646:io_wbs_ack_o wbs_ack_o 35.9197 
*END

*D_NET *543 0.0158559
*CONN
*P wbs_adr_i[0] I
*I *646:io_wbs_adr_i[0] I *D CaravelTopLevel
*CAP
1 wbs_adr_i[0] 0.00439055
2 *646:io_wbs_adr_i[0] 0.00439055
3 *646:io_wbs_adr_i[0] *646:io_wbs_adr_i[1] 0.00703571
4 *646:io_wbs_adr_i[0] *646:io_wbs_adr_i[4] 3.90682e-05
5 *646:io_wbs_adr_i[0] *643:11 0
*RES
1 wbs_adr_i[0] *646:io_wbs_adr_i[0] 37.8766 
*END

*D_NET *544 0.0182139
*CONN
*P wbs_adr_i[10] I
*I *646:io_wbs_adr_i[10] I *D CaravelTopLevel
*CAP
1 wbs_adr_i[10] 0.000586916
2 *646:io_wbs_adr_i[10] 0.000272038
3 *544:9 0.00148226
4 *544:7 0.00179714
5 *646:io_wbs_adr_i[10] wbs_dat_o[14] 0
6 *646:io_wbs_adr_i[10] *581:7 0
7 *544:7 wbs_dat_o[9] 0
8 *544:7 *646:io_wbs_dat_i[5] 0
9 *544:9 *646:io_wbs_adr_i[11] 0.00105213
10 *544:9 *646:io_wbs_adr_i[9] 0.000175894
11 *544:9 *546:9 0.00412497
12 *544:9 *577:9 0.00693006
13 *544:9 *605:9 0.00178266
14 *544:9 *609:11 9.85599e-06
*RES
1 wbs_adr_i[10] *544:7 15.9464 
2 *544:7 *544:9 70.7679 
3 *544:9 *646:io_wbs_adr_i[10] 6.88393 
*END

*D_NET *545 0.0220045
*CONN
*P wbs_adr_i[11] I
*I *646:io_wbs_adr_i[11] I *D CaravelTopLevel
*CAP
1 wbs_adr_i[11] 0.00526399
2 *646:io_wbs_adr_i[11] 0.00526399
3 *646:io_wbs_adr_i[11] *646:io_wbs_adr_i[14] 0
4 *646:io_wbs_adr_i[11] *646:io_wbs_adr_i[6] 0
5 *646:io_wbs_adr_i[11] *646:io_wbs_adr_i[9] 0.0045916
6 *646:io_wbs_adr_i[11] *646:io_wbs_dat_i[11] 0
7 *646:io_wbs_adr_i[11] *646:io_wbs_dat_i[6] 0.000359713
8 *646:io_wbs_adr_i[11] *546:9 0.000804253
9 *646:io_wbs_adr_i[11] *577:9 0.00238785
10 *646:io_wbs_adr_i[11] *581:9 0.000114827
11 *646:io_wbs_adr_i[11] *605:9 0.000325149
12 *646:io_wbs_adr_i[11] *607:13 0.000176794
13 *646:io_wbs_adr_i[11] *609:11 0.000683449
14 *646:io_wbs_adr_i[11] *610:11 0.000155546
15 *646:io_wbs_adr_i[11] *611:11 0.000704645
16 *646:io_wbs_adr_i[11] *613:11 0.000120538
17 *544:9 *646:io_wbs_adr_i[11] 0.00105213
*RES
1 wbs_adr_i[11] *646:io_wbs_adr_i[11] 31.6384 
*END

*D_NET *546 0.0178676
*CONN
*P wbs_adr_i[12] I
*I *646:io_wbs_adr_i[12] I *D CaravelTopLevel
*CAP
1 wbs_adr_i[12] 0.000610801
2 *646:io_wbs_adr_i[12] 0.000165926
3 *546:9 0.00134249
4 *546:7 0.00178737
5 *646:io_wbs_adr_i[12] *583:7 4.04359e-05
6 *546:9 wbs_dat_o[15] 0.00011307
7 *546:9 *577:9 0.000359604
8 *546:9 *582:9 0.00173986
9 *546:9 *609:11 0.000590814
10 *546:9 *611:11 0.00618803
11 *646:io_wbs_adr_i[11] *546:9 0.000804253
12 *544:9 *546:9 0.00412497
*RES
1 wbs_adr_i[12] *546:7 16.25 
2 *546:7 *546:9 69.125 
3 *546:9 *646:io_wbs_adr_i[12] 6.16964 
*END

*D_NET *547 0.014167
*CONN
*P wbs_adr_i[13] I
*I *646:io_wbs_adr_i[13] I *D CaravelTopLevel
*CAP
1 wbs_adr_i[13] 0.00342863
2 *646:io_wbs_adr_i[13] 0.00342863
3 *646:io_wbs_adr_i[13] *646:io_wbs_dat_i[12] 0.000326674
4 *646:io_wbs_adr_i[13] *646:io_wbs_dat_i[13] 0.00698304
*RES
1 wbs_adr_i[13] *646:io_wbs_adr_i[13] 35.1936 
*END

*D_NET *548 0.00956536
*CONN
*P wbs_adr_i[14] I
*I *646:io_wbs_adr_i[14] I *D CaravelTopLevel
*CAP
1 wbs_adr_i[14] 0.00478268
2 *646:io_wbs_adr_i[14] 0.00478268
3 *646:io_wbs_adr_i[14] wbs_dat_o[15] 0
4 *646:io_wbs_adr_i[14] *646:io_wbs_adr_i[18] 0
5 *646:io_wbs_adr_i[14] *639:9 0
6 *646:io_wbs_adr_i[11] *646:io_wbs_adr_i[14] 0
*RES
1 wbs_adr_i[14] *646:io_wbs_adr_i[14] 32.3722 
*END

*D_NET *549 0.0139376
*CONN
*P wbs_adr_i[15] I
*I *646:io_wbs_adr_i[15] I *D CaravelTopLevel
*CAP
1 wbs_adr_i[15] 0.000756502
2 *646:io_wbs_adr_i[15] 0.000116746
3 *549:9 0.00185886
4 *549:7 0.00249861
5 *549:7 *646:io_wbs_dat_i[10] 0
6 *549:9 *646:io_wbs_adr_i[16] 0.000573335
7 *549:9 *581:9 0.000569817
8 *549:9 *583:9 0.000139852
9 *549:9 *612:11 0.00487501
10 *549:9 *613:11 0.000191774
11 *549:9 *616:11 0.0023571
*RES
1 wbs_adr_i[15] *549:7 18.375 
2 *549:7 *549:9 65.8393 
3 *549:9 *646:io_wbs_adr_i[15] 6.27679 
*END

*D_NET *550 0.0201966
*CONN
*P wbs_adr_i[16] I
*I *646:io_wbs_adr_i[16] I *D CaravelTopLevel
*CAP
1 wbs_adr_i[16] 0.0041417
2 *646:io_wbs_adr_i[16] 0.0041417
3 *646:io_wbs_adr_i[16] wbs_dat_o[15] 0.00674267
4 *646:io_wbs_adr_i[16] *646:io_wbs_dat_i[11] 0
5 *646:io_wbs_adr_i[16] *581:9 0.00072573
6 *646:io_wbs_adr_i[16] *583:9 0.00129037
7 *646:io_wbs_adr_i[16] *612:11 0.000416785
8 *646:io_wbs_adr_i[16] *613:11 0.000981377
9 *646:io_wbs_adr_i[16] *615:11 0.000106739
10 *646:io_wbs_adr_i[16] *616:11 0.000430334
11 *646:io_wbs_adr_i[16] *617:11 0.000530808
12 *646:io_wbs_adr_i[16] *618:11 0.000115099
13 *549:9 *646:io_wbs_adr_i[16] 0.000573335
*RES
1 wbs_adr_i[16] *646:io_wbs_adr_i[16] 30.6391 
*END

*D_NET *551 0.0134944
*CONN
*P wbs_adr_i[17] I
*I *646:io_wbs_adr_i[17] I *D CaravelTopLevel
*CAP
1 wbs_adr_i[17] 0.00056945
2 *646:io_wbs_adr_i[17] 0.00017979
3 *551:9 0.00231316
4 *551:7 0.00270282
5 *551:9 wbs_dat_o[15] 0.00172735
6 *551:9 *582:9 0.00412456
7 *551:9 *588:9 0.00113922
8 *551:9 *615:11 0.000121859
9 *551:9 *618:11 0.000616148
*RES
1 wbs_adr_i[17] *551:7 15.6429 
2 *551:7 *551:9 63.7857 
3 *551:9 *646:io_wbs_adr_i[17] 7.1875 
*END

*D_NET *552 0.0167713
*CONN
*P wbs_adr_i[18] I
*I *646:io_wbs_adr_i[18] I *D CaravelTopLevel
*CAP
1 wbs_adr_i[18] 0.002412
2 *646:io_wbs_adr_i[18] 0.002412
3 *646:io_wbs_adr_i[18] *646:io_wbs_dat_i[17] 0.00550993
4 *646:io_wbs_adr_i[18] *646:io_wbs_dat_i[18] 0.00620698
5 *646:io_wbs_adr_i[18] *557:11 0.000230435
6 *646:io_wbs_adr_i[14] *646:io_wbs_adr_i[18] 0
*RES
1 wbs_adr_i[18] *646:io_wbs_adr_i[18] 33.8865 
*END

*D_NET *553 0.0140476
*CONN
*P wbs_adr_i[19] I
*I *646:io_wbs_adr_i[19] I *D CaravelTopLevel
*CAP
1 wbs_adr_i[19] 0.0027488
2 *646:io_wbs_adr_i[19] 0.0027488
3 *646:io_wbs_adr_i[19] wbs_dat_o[20] 0.00394103
4 *646:io_wbs_adr_i[19] wbs_dat_o[22] 0
5 *646:io_wbs_adr_i[19] *646:io_wbs_adr_i[20] 0.000510695
6 *646:io_wbs_adr_i[19] *646:io_wbs_adr_i[21] 0.00334424
7 *646:io_wbs_adr_i[19] *646:io_wbs_adr_i[23] 0
8 *646:io_wbs_adr_i[19] *646:io_wbs_dat_i[18] 0.000754004
*RES
1 wbs_adr_i[19] *646:io_wbs_adr_i[19] 31.5074 
*END

*D_NET *554 0.021967
*CONN
*P wbs_adr_i[1] I
*I *646:io_wbs_adr_i[1] I *D CaravelTopLevel
*CAP
1 wbs_adr_i[1] 0.0027954
2 *646:io_wbs_adr_i[1] 0.0027954
3 *646:io_wbs_adr_i[1] wbs_dat_o[1] 0.00806116
4 *646:io_wbs_adr_i[1] *646:io_wbs_dat_i[4] 0.00127934
5 *646:io_wbs_adr_i[1] *570:7 0
6 *646:io_wbs_adr_i[1] *603:7 0
7 *646:io_wbs_adr_i[0] *646:io_wbs_adr_i[1] 0.00703571
*RES
1 wbs_adr_i[1] *646:io_wbs_adr_i[1] 36.5393 
*END

*D_NET *555 0.0157451
*CONN
*P wbs_adr_i[20] I
*I *646:io_wbs_adr_i[20] I *D CaravelTopLevel
*CAP
1 wbs_adr_i[20] 0.00219354
2 *646:io_wbs_adr_i[20] 0.00219354
3 *646:io_wbs_adr_i[20] wbs_dat_o[20] 0.00559033
4 *646:io_wbs_adr_i[20] wbs_dat_o[23] 0
5 *646:io_wbs_adr_i[20] *646:io_wbs_dat_i[18] 0.00379091
6 *646:io_wbs_adr_i[20] *646:io_wbs_dat_i[22] 0.00146612
7 *646:io_wbs_adr_i[19] *646:io_wbs_adr_i[20] 0.000510695
*RES
1 wbs_adr_i[20] *646:io_wbs_adr_i[20] 33.1094 
*END

*D_NET *556 0.013643
*CONN
*P wbs_adr_i[21] I
*I *646:io_wbs_adr_i[21] I *D CaravelTopLevel
*CAP
1 wbs_adr_i[21] 0.00259786
2 *646:io_wbs_adr_i[21] 0.00259786
3 *646:io_wbs_adr_i[21] wbs_dat_o[20] 0.00157004
4 *646:io_wbs_adr_i[21] wbs_dat_o[24] 0.000237696
5 *646:io_wbs_adr_i[21] *646:io_wbs_adr_i[23] 0.00310685
6 *646:io_wbs_adr_i[21] *646:io_wbs_dat_i[24] 0.000188477
7 *646:io_wbs_adr_i[19] *646:io_wbs_adr_i[21] 0.00334424
*RES
1 wbs_adr_i[21] *646:io_wbs_adr_i[21] 31.075 
*END

*D_NET *557 0.0129584
*CONN
*P wbs_adr_i[22] I
*I *646:io_wbs_adr_i[22] I *D CaravelTopLevel
*CAP
1 wbs_adr_i[22] 0.000669961
2 *646:io_wbs_adr_i[22] 5.74315e-05
3 *557:13 0.0012367
4 *557:11 0.00184923
5 *557:11 *646:io_wbs_dat_i[18] 0
6 *557:13 wbs_dat_o[21] 0.000354508
7 *557:13 wbs_dat_o[22] 0.00116688
8 *557:13 *586:9 0.00103024
9 *557:13 *589:9 0.00116235
10 *557:13 *591:9 0.000333902
11 *557:13 *617:11 0.000835727
12 *557:13 *621:13 0.00403105
13 *646:io_wbs_adr_i[18] *557:11 0.000230435
*RES
1 wbs_adr_i[22] *557:11 18.6429 
2 *557:11 *557:13 58.0357 
3 *557:13 *646:io_wbs_adr_i[22] 5.45536 
*END

*D_NET *558 0.0125483
*CONN
*P wbs_adr_i[23] I
*I *646:io_wbs_adr_i[23] I *D CaravelTopLevel
*CAP
1 wbs_adr_i[23] 0.00283105
2 *646:io_wbs_adr_i[23] 0.00283105
3 *646:io_wbs_adr_i[23] wbs_dat_o[26] 0.000743394
4 *646:io_wbs_adr_i[23] *646:io_wbs_adr_i[25] 0.00292511
5 *646:io_wbs_adr_i[23] *646:io_wbs_dat_i[24] 0.000110842
6 *646:io_wbs_adr_i[19] *646:io_wbs_adr_i[23] 0
7 *646:io_wbs_adr_i[21] *646:io_wbs_adr_i[23] 0.00310685
*RES
1 wbs_adr_i[23] *646:io_wbs_adr_i[23] 30.7146 
*END

*D_NET *559 0.0150326
*CONN
*P wbs_adr_i[24] I
*I *646:io_wbs_adr_i[24] I *D CaravelTopLevel
*CAP
1 wbs_adr_i[24] 0.00198433
2 *646:io_wbs_adr_i[24] 0.00198433
3 *646:io_wbs_adr_i[24] wbs_dat_o[20] 0.000162512
4 *646:io_wbs_adr_i[24] wbs_dat_o[27] 0
5 *646:io_wbs_adr_i[24] *646:io_wbs_adr_i[27] 0.000901253
6 *646:io_wbs_adr_i[24] *646:io_wbs_dat_i[22] 0.00346923
7 *646:io_wbs_adr_i[24] *646:io_wbs_dat_i[24] 0.00587761
8 *646:io_wbs_adr_i[24] *646:io_wbs_dat_i[26] 0.000653347
9 *646:io_wbs_adr_i[24] *646:io_wbs_dat_i[27] 0
*RES
1 wbs_adr_i[24] *646:io_wbs_adr_i[24] 32.2637 
*END

*D_NET *560 0.012889
*CONN
*P wbs_adr_i[25] I
*I *646:io_wbs_adr_i[25] I *D CaravelTopLevel
*CAP
1 wbs_adr_i[25] 0.0022953
2 *646:io_wbs_adr_i[25] 0.0022953
3 *646:io_wbs_adr_i[25] wbs_dat_o[28] 0
4 *646:io_wbs_adr_i[25] *646:io_wbs_adr_i[26] 0.00447086
5 *646:io_wbs_adr_i[25] *646:io_wbs_dat_i[24] 0.000231359
6 *646:io_wbs_adr_i[25] *646:io_wbs_dat_i[25] 0.000671108
7 *646:io_wbs_adr_i[25] *646:io_wbs_dat_i[27] 0
8 *646:io_wbs_adr_i[23] *646:io_wbs_adr_i[25] 0.00292511
*RES
1 wbs_adr_i[25] *646:io_wbs_adr_i[25] 30.3543 
*END

*D_NET *561 0.0143329
*CONN
*P wbs_adr_i[26] I
*I *646:io_wbs_adr_i[26] I *D CaravelTopLevel
*CAP
1 wbs_adr_i[26] 0.00191448
2 *646:io_wbs_adr_i[26] 0.00191448
3 *646:io_wbs_adr_i[26] wbs_dat_o[29] 0
4 *646:io_wbs_adr_i[26] *646:io_wbs_adr_i[28] 0.000616662
5 *646:io_wbs_adr_i[26] *646:io_wbs_dat_i[22] 6.93662e-05
6 *646:io_wbs_adr_i[26] *646:io_wbs_dat_i[25] 0.00503717
7 *646:io_wbs_adr_i[26] *646:io_wbs_dat_i[27] 0
8 *646:io_wbs_adr_i[26] *646:io_wbs_dat_i[29] 0.000309837
9 *646:io_wbs_adr_i[25] *646:io_wbs_adr_i[26] 0.00447086
*RES
1 wbs_adr_i[26] *646:io_wbs_adr_i[26] 30.2102 
*END

*D_NET *562 0.0144907
*CONN
*P wbs_adr_i[27] I
*I *646:io_wbs_adr_i[27] I *D CaravelTopLevel
*CAP
1 wbs_adr_i[27] 0.0021468
2 *646:io_wbs_adr_i[27] 0.0021468
3 *646:io_wbs_adr_i[27] wbs_dat_o[30] 0
4 *646:io_wbs_adr_i[27] *646:io_wbs_adr_i[28] 0.00019056
5 *646:io_wbs_adr_i[27] *646:io_wbs_dat_i[24] 0.000297589
6 *646:io_wbs_adr_i[27] *646:io_wbs_dat_i[25] 0.000151221
7 *646:io_wbs_adr_i[27] *646:io_wbs_dat_i[26] 0.00480449
8 *646:io_wbs_adr_i[27] *646:io_wbs_dat_i[28] 0.00385199
9 *646:io_wbs_adr_i[27] *646:io_wbs_dat_i[30] 0
10 *646:io_wbs_adr_i[24] *646:io_wbs_adr_i[27] 0.000901253
*RES
1 wbs_adr_i[27] *646:io_wbs_adr_i[27] 33.5482 
*END

*D_NET *563 0.0124015
*CONN
*P wbs_adr_i[28] I
*I *646:io_wbs_adr_i[28] I *D CaravelTopLevel
*CAP
1 wbs_adr_i[28] 0.0023606
2 *646:io_wbs_adr_i[28] 0.0023606
3 *646:io_wbs_adr_i[28] wbs_dat_o[28] 0
4 *646:io_wbs_adr_i[28] *646:io_wbs_adr_i[30] 0.00228682
5 *646:io_wbs_adr_i[28] *646:io_wbs_dat_i[25] 0.00130149
6 *646:io_wbs_adr_i[28] *646:io_wbs_dat_i[27] 0
7 *646:io_wbs_adr_i[28] *646:io_wbs_dat_i[28] 0.00284797
8 *646:io_wbs_adr_i[28] *600:9 0.000436841
9 *646:io_wbs_adr_i[26] *646:io_wbs_adr_i[28] 0.000616662
10 *646:io_wbs_adr_i[27] *646:io_wbs_adr_i[28] 0.00019056
*RES
1 wbs_adr_i[28] *646:io_wbs_adr_i[28] 30.4222 
*END

*D_NET *564 0.0139913
*CONN
*P wbs_adr_i[29] I
*I *646:io_wbs_adr_i[29] I *D CaravelTopLevel
*CAP
1 wbs_adr_i[29] 0.00197929
2 *646:io_wbs_adr_i[29] 0.00197929
3 *646:io_wbs_adr_i[29] wbs_dat_o[27] 0.000321846
4 *646:io_wbs_adr_i[29] wbs_dat_o[28] 0.00519788
5 *646:io_wbs_adr_i[29] wbs_dat_o[29] 0.00451303
6 *646:io_wbs_adr_i[29] *646:io_wbs_dat_i[25] 0
7 *646:io_la_data_in[0] *646:io_wbs_adr_i[29] 0
*RES
1 wbs_adr_i[29] *646:io_wbs_adr_i[29] 29.6336 
*END

*D_NET *565 0.020991
*CONN
*P wbs_adr_i[2] I
*I *646:io_wbs_adr_i[2] I *D CaravelTopLevel
*CAP
1 wbs_adr_i[2] 0.00436721
2 *646:io_wbs_adr_i[2] 0.00436721
3 *646:io_wbs_adr_i[2] wbs_dat_o[0] 0.000287267
4 *646:io_wbs_adr_i[2] wbs_dat_o[6] 0
5 *646:io_wbs_adr_i[2] *646:io_wbs_adr_i[3] 0.00664896
6 *646:io_wbs_adr_i[2] *646:io_wbs_dat_i[0] 0.000970234
7 *646:io_wbs_adr_i[2] *575:9 0.000885711
8 *646:io_wbs_adr_i[2] *601:11 0.000131918
9 *646:io_wbs_adr_i[2] *601:13 0.00086015
10 *646:io_wbs_adr_i[2] *603:11 0.000697309
11 *646:io_wbs_adr_i[2] *641:9 0.000333271
12 *646:io_wbs_adr_i[2] *644:9 0.000699299
13 *646:io_wb_clk_i *646:io_wbs_adr_i[2] 0.000742497
*RES
1 wbs_adr_i[2] *646:io_wbs_adr_i[2] 33.4401 
*END

*D_NET *566 0.00990725
*CONN
*P wbs_adr_i[30] I
*I *646:io_wbs_adr_i[30] I *D CaravelTopLevel
*CAP
1 wbs_adr_i[30] 0.0026362
2 *646:io_wbs_adr_i[30] 0.0026362
3 *646:io_wbs_adr_i[30] *646:io_wbs_adr_i[31] 0.000727424
4 *646:io_wbs_adr_i[30] *646:io_wbs_dat_i[26] 0
5 *646:io_wbs_adr_i[30] *646:io_wbs_dat_i[28] 0.00162061
6 la_data_out[0] *646:io_wbs_adr_i[30] 0
7 la_data_out[1] *646:io_wbs_adr_i[30] 0
8 *646:io_la_data_in[1] *646:io_wbs_adr_i[30] 0
9 *646:io_wbs_adr_i[28] *646:io_wbs_adr_i[30] 0.00228682
*RES
1 wbs_adr_i[30] *646:io_wbs_adr_i[30] 29.4174 
*END

*D_NET *567 0.00804223
*CONN
*P wbs_adr_i[31] I
*I *646:io_wbs_adr_i[31] I *D CaravelTopLevel
*CAP
1 wbs_adr_i[31] 0.00322976
2 *646:io_wbs_adr_i[31] 0.00322976
3 *646:io_wbs_adr_i[31] *646:io_wbs_dat_i[28] 0.00056221
4 la_data_out[2] *646:io_wbs_adr_i[31] 0
5 *646:io_la_data_in[2] *646:io_wbs_adr_i[31] 0.000293078
6 *646:io_wbs_adr_i[30] *646:io_wbs_adr_i[31] 0.000727424
*RES
1 wbs_adr_i[31] *646:io_wbs_adr_i[31] 31.5035 
*END

*D_NET *568 0.0229907
*CONN
*P wbs_adr_i[3] I
*I *646:io_wbs_adr_i[3] I *D CaravelTopLevel
*CAP
1 wbs_adr_i[3] 0.00432714
2 *646:io_wbs_adr_i[3] 0.00432714
3 *646:io_wbs_adr_i[3] wbs_dat_o[0] 0.00175958
4 *646:io_wbs_adr_i[3] wbs_dat_o[7] 2.98338e-05
5 *646:io_wbs_adr_i[3] *646:io_wbs_dat_i[2] 0.00125512
6 *646:io_wbs_adr_i[3] *646:io_wbs_dat_i[3] 0
7 *646:io_wbs_adr_i[3] *572:11 0.00011307
8 *646:io_wbs_adr_i[3] *601:13 0.00022614
9 *646:io_wbs_adr_i[3] *603:11 0.000731553
10 *646:io_wbs_adr_i[3] *605:9 0.000121926
11 *646:io_wbs_adr_i[3] *630:11 0.00107526
12 *646:io_wbs_adr_i[3] *633:11 0.000812864
13 *646:io_wbs_adr_i[3] *634:11 0.000210013
14 *646:io_wbs_adr_i[3] *635:11 0.000703617
15 *646:io_wbs_adr_i[3] *641:9 0.000648529
16 *646:io_wbs_adr_i[2] *646:io_wbs_adr_i[3] 0.00664896
*RES
1 wbs_adr_i[3] *646:io_wbs_adr_i[3] 33.1518 
*END

*D_NET *569 0.0155827
*CONN
*P wbs_adr_i[4] I
*I *646:io_wbs_adr_i[4] I *D CaravelTopLevel
*CAP
1 wbs_adr_i[4] 0.00368823
2 *646:io_wbs_adr_i[4] 0.00368823
3 *646:io_wbs_adr_i[4] wbs_dat_o[1] 0.00309055
4 *646:io_wbs_adr_i[4] wbs_dat_o[8] 0
5 *646:io_wbs_adr_i[4] *646:io_wbs_adr_i[6] 0.00019056
6 *646:io_wbs_adr_i[4] *646:io_wbs_adr_i[9] 0
7 *646:io_wbs_adr_i[4] *646:io_wbs_dat_i[4] 0.000223681
8 *646:io_wbs_adr_i[4] *646:io_wbs_dat_i[6] 0.00466241
9 *646:io_wbs_adr_i[0] *646:io_wbs_adr_i[4] 3.90682e-05
*RES
1 wbs_adr_i[4] *646:io_wbs_adr_i[4] 36.3875 
*END

*D_NET *570 0.0181829
*CONN
*P wbs_adr_i[5] I
*I *646:io_wbs_adr_i[5] I *D CaravelTopLevel
*CAP
1 wbs_adr_i[5] 0.000717226
2 *646:io_wbs_adr_i[5] 0.000217991
3 *570:9 0.00137266
4 *570:7 0.0018719
5 *570:7 *646:io_wbs_sel_i[0] 0
6 *570:9 *646:io_wbs_adr_i[9] 0.000248086
7 *570:9 *646:io_wbs_dat_i[2] 0.000156933
8 *570:9 *587:9 0.000750489
9 *570:9 *606:13 0.00235372
10 *570:9 *607:11 0.000286201
11 *570:9 *634:11 0.00751223
12 *570:9 *643:13 0.00269544
13 *646:io_wbs_adr_i[1] *570:7 0
*RES
1 wbs_adr_i[5] *570:7 17.7679 
2 *570:7 *570:9 76.1071 
3 *570:9 *646:io_wbs_adr_i[5] 6.27679 
*END

*D_NET *571 0.0194106
*CONN
*P wbs_adr_i[6] I
*I *646:io_wbs_adr_i[6] I *D CaravelTopLevel
*CAP
1 wbs_adr_i[6] 0.00245264
2 *646:io_wbs_adr_i[6] 0.00245264
3 *646:io_wbs_adr_i[6] wbs_dat_o[10] 0.00011709
4 *646:io_wbs_adr_i[6] *646:io_wbs_dat_i[4] 0.00555064
5 *646:io_wbs_adr_i[6] *646:io_wbs_dat_i[6] 0.00796736
6 *646:io_wbs_adr_i[6] *638:19 0.000679702
7 *646:io_wbs_adr_i[11] *646:io_wbs_adr_i[6] 0
8 *646:io_wbs_adr_i[4] *646:io_wbs_adr_i[6] 0.00019056
*RES
1 wbs_adr_i[6] *646:io_wbs_adr_i[6] 35.8473 
*END

*D_NET *572 0.0171556
*CONN
*P wbs_adr_i[7] I
*I *646:io_wbs_adr_i[7] I *D CaravelTopLevel
*CAP
1 wbs_adr_i[7] 0.00113516
2 *646:io_wbs_adr_i[7] 0.000416246
3 *572:17 0.00216226
4 *572:15 0.00209147
5 *572:11 0.00148062
6 *646:io_wbs_adr_i[7] wbs_dat_o[11] 0.000661808
7 *572:11 *601:13 0.00156894
8 *572:11 *603:11 0.000231961
9 *572:11 *605:9 0.00208007
10 *572:11 *630:11 5.50052e-05
11 *572:11 *635:11 0.000276265
12 *572:15 wbs_dat_o[8] 8.72217e-05
13 *572:15 *606:11 0
14 *572:17 *603:19 0.00261872
15 *572:17 *638:13 0.00166115
16 *572:17 *639:11 0.000515617
17 *646:io_wbs_adr_i[3] *572:11 0.00011307
*RES
1 wbs_adr_i[7] *572:11 45.9286 
2 *572:11 *572:15 12.2143 
3 *572:15 *572:17 49.4107 
4 *572:17 *646:io_wbs_adr_i[7] 13.7589 
*END

*D_NET *573 0.0184641
*CONN
*P wbs_adr_i[8] I
*I *646:io_wbs_adr_i[8] I *D CaravelTopLevel
*CAP
1 wbs_adr_i[8] 0.000991158
2 *646:io_wbs_adr_i[8] 0.0001309
3 *573:17 0.00111208
4 *573:15 0.00197234
5 *573:15 *603:19 0
6 *573:15 *606:13 6.42916e-05
7 *573:15 *636:13 9.86153e-06
8 *573:15 *636:17 0.00100808
9 *573:15 *643:13 0.000878573
10 *573:17 *646:io_wbs_adr_i[9] 0.000605176
11 *573:17 *606:13 0.00660989
12 *573:17 *636:13 0.00448376
13 *573:17 *636:17 1.65914e-05
14 *573:17 *637:11 0.000581344
*RES
1 wbs_adr_i[8] *573:15 30.1607 
2 *573:15 *573:17 62.5536 
3 *573:17 *646:io_wbs_adr_i[8] 6.27679 
*END

*D_NET *574 0.0225258
*CONN
*P wbs_adr_i[9] I
*I *646:io_wbs_adr_i[9] I *D CaravelTopLevel
*CAP
1 wbs_adr_i[9] 0.00567024
2 *646:io_wbs_adr_i[9] 0.00567024
3 *646:io_wbs_adr_i[9] *646:io_wbs_dat_i[4] 0
4 *646:io_wbs_adr_i[9] *605:9 0.000621977
5 *646:io_wbs_adr_i[9] *606:13 0.000857434
6 *646:io_wbs_adr_i[9] *607:11 0.000245884
7 *646:io_wbs_adr_i[9] *607:13 0.000970307
8 *646:io_wbs_adr_i[9] *609:11 0.00070661
9 *646:io_wbs_adr_i[9] *610:11 0.000755324
10 *646:io_wbs_adr_i[9] *634:11 0.000174284
11 *646:io_wbs_adr_i[9] *635:11 0.000507227
12 *646:io_wbs_adr_i[9] *636:13 0.000418671
13 *646:io_wbs_adr_i[9] *638:19 0.000306814
14 *646:io_wbs_adr_i[11] *646:io_wbs_adr_i[9] 0.0045916
15 *646:io_wbs_adr_i[4] *646:io_wbs_adr_i[9] 0
16 *544:9 *646:io_wbs_adr_i[9] 0.000175894
17 *570:9 *646:io_wbs_adr_i[9] 0.000248086
18 *573:17 *646:io_wbs_adr_i[9] 0.000605176
*RES
1 wbs_adr_i[9] *646:io_wbs_adr_i[9] 31.9363 
*END

*D_NET *575 0.017928
*CONN
*P wbs_cyc_i I
*I *646:io_wbs_cyc_i I *D CaravelTopLevel
*CAP
1 wbs_cyc_i 0.000557251
2 *646:io_wbs_cyc_i 0.000262866
3 *575:9 0.00312173
4 *575:7 0.00341611
5 *646:io_wbs_cyc_i *601:11 3.47641e-06
6 *575:9 *644:9 0.0082805
7 *646:io_wb_clk_i *575:9 0.00140034
8 *646:io_wbs_adr_i[2] *575:9 0.000885711
*RES
1 wbs_cyc_i *575:7 15.6429 
2 *575:7 *575:9 83.9107 
3 *575:9 *646:io_wbs_cyc_i 7.1875 
*END

*D_NET *576 0.0154459
*CONN
*P wbs_dat_i[0] I
*I *646:io_wbs_dat_i[0] I *D CaravelTopLevel
*CAP
1 wbs_dat_i[0] 0.00424408
2 *646:io_wbs_dat_i[0] 0.00424408
3 *646:io_wb_clk_i *646:io_wbs_dat_i[0] 0
4 *646:io_wb_rst_i *646:io_wbs_dat_i[0] 0.00598752
5 *646:io_wbs_adr_i[2] *646:io_wbs_dat_i[0] 0.000970234
*RES
1 wbs_dat_i[0] *646:io_wbs_dat_i[0] 35.1828 
*END

*D_NET *577 0.0158697
*CONN
*P wbs_dat_i[10] I
*I *646:io_wbs_dat_i[10] I *D CaravelTopLevel
*CAP
1 wbs_dat_i[10] 0.000575208
2 *646:io_wbs_dat_i[10] 8.03756e-05
3 *577:9 0.00252089
4 *577:7 0.00301573
5 *646:io_wbs_dat_i[10] wbs_dat_o[14] 0
6 *577:7 *646:io_wbs_dat_i[5] 0
7 *646:io_wbs_adr_i[11] *577:9 0.00238785
8 *544:9 *577:9 0.00693006
9 *546:9 *577:9 0.000359604
10 *549:7 *646:io_wbs_dat_i[10] 0
*RES
1 wbs_dat_i[10] *577:7 15.6429 
2 *577:7 *577:9 72.2054 
3 *577:9 *646:io_wbs_dat_i[10] 5.625 
*END

*D_NET *578 0.0137814
*CONN
*P wbs_dat_i[11] I
*I *646:io_wbs_dat_i[11] I *D CaravelTopLevel
*CAP
1 wbs_dat_i[11] 0.00374458
2 *646:io_wbs_dat_i[11] 0.00374458
3 *646:io_wbs_dat_i[11] wbs_dat_o[15] 0.000358936
4 *646:io_wbs_dat_i[11] *646:io_wbs_dat_i[12] 0.00593333
5 *646:io_wbs_adr_i[11] *646:io_wbs_dat_i[11] 0
6 *646:io_wbs_adr_i[16] *646:io_wbs_dat_i[11] 0
*RES
1 wbs_dat_i[11] *646:io_wbs_dat_i[11] 35.1069 
*END

*D_NET *579 0.0173747
*CONN
*P wbs_dat_i[12] I
*I *646:io_wbs_dat_i[12] I *D CaravelTopLevel
*CAP
1 wbs_dat_i[12] 0.0024924
2 *646:io_wbs_dat_i[12] 0.0024924
3 *646:io_wbs_dat_i[12] wbs_dat_o[16] 0.000362831
4 *646:io_wbs_dat_i[12] *646:io_wbs_dat_i[13] 0.0057671
5 *646:io_wbs_dat_i[12] *583:7 0
6 *646:io_wbs_adr_i[13] *646:io_wbs_dat_i[12] 0.000326674
7 *646:io_wbs_dat_i[11] *646:io_wbs_dat_i[12] 0.00593333
*RES
1 wbs_dat_i[12] *646:io_wbs_dat_i[12] 35.3715 
*END

*D_NET *580 0.0178663
*CONN
*P wbs_dat_i[13] I
*I *646:io_wbs_dat_i[13] I *D CaravelTopLevel
*CAP
1 wbs_dat_i[13] 0.00229849
2 *646:io_wbs_dat_i[13] 0.00229849
3 *646:io_wbs_dat_i[13] wbs_dat_o[17] 0.000219744
4 *646:io_wbs_dat_i[13] *646:io_wbs_dat_i[17] 0.00029945
5 *646:io_wbs_adr_i[13] *646:io_wbs_dat_i[13] 0.00698304
6 *646:io_wbs_dat_i[12] *646:io_wbs_dat_i[13] 0.0057671
*RES
1 wbs_dat_i[13] *646:io_wbs_dat_i[13] 35.8722 
*END

*D_NET *581 0.0177328
*CONN
*P wbs_dat_i[14] I
*I *646:io_wbs_dat_i[14] I *D CaravelTopLevel
*CAP
1 wbs_dat_i[14] 0.000720246
2 *646:io_wbs_dat_i[14] 0.000179982
3 *581:9 0.00108065
4 *581:7 0.00162092
5 *581:7 *639:9 0
6 *581:9 *610:11 0.000280947
7 *581:9 *612:11 0.00596003
8 *581:9 *613:11 0.00647966
9 *646:io_wbs_adr_i[10] *581:7 0
10 *646:io_wbs_adr_i[11] *581:9 0.000114827
11 *646:io_wbs_adr_i[16] *581:9 0.00072573
12 *549:9 *581:9 0.000569817
*RES
1 wbs_dat_i[14] *581:7 17.7679 
2 *581:7 *581:9 66.25 
3 *581:9 *646:io_wbs_dat_i[14] 6.27679 
*END

*D_NET *582 0.0151125
*CONN
*P wbs_dat_i[15] I
*I *646:io_wbs_dat_i[15] I *D CaravelTopLevel
*CAP
1 wbs_dat_i[15] 0.000586683
2 *646:io_wbs_dat_i[15] 0.000243298
3 *582:9 0.00176953
4 *582:7 0.00211291
5 *582:9 wbs_dat_o[15] 0.00108694
6 *582:9 wbs_dat_o[16] 0.00142102
7 *582:9 *611:11 0.000273609
8 *582:9 *615:11 0.0017541
9 *546:9 *582:9 0.00173986
10 *551:9 *582:9 0.00412456
*RES
1 wbs_dat_i[15] *582:7 15.9464 
2 *582:7 *582:9 65.4286 
3 *582:9 *646:io_wbs_dat_i[15] 6.88393 
*END

*D_NET *583 0.015315
*CONN
*P wbs_dat_i[16] I
*I *646:io_wbs_dat_i[16] I *D CaravelTopLevel
*CAP
1 wbs_dat_i[16] 0.000666822
2 *646:io_wbs_dat_i[16] 0.000141238
3 *583:9 0.00124666
4 *583:7 0.00177224
5 *583:9 wbs_dat_o[16] 0.000337281
6 *583:9 *586:9 0.000978467
7 *583:9 *611:11 0.000566578
8 *583:9 *613:11 0.00418122
9 *583:9 *615:11 0.00104806
10 *583:9 *616:11 2.85579e-05
11 *583:9 *617:11 0.00287719
12 *646:io_wbs_adr_i[12] *583:7 4.04359e-05
13 *646:io_wbs_adr_i[16] *583:9 0.00129037
14 *646:io_wbs_dat_i[12] *583:7 0
15 *549:9 *583:9 0.000139852
*RES
1 wbs_dat_i[16] *583:7 17.1607 
2 *583:7 *583:9 64.1964 
3 *583:9 *646:io_wbs_dat_i[16] 6.27679 
*END

*D_NET *584 0.012834
*CONN
*P wbs_dat_i[17] I
*I *646:io_wbs_dat_i[17] I *D CaravelTopLevel
*CAP
1 wbs_dat_i[17] 0.00324707
2 *646:io_wbs_dat_i[17] 0.00324707
3 *646:io_wbs_dat_i[17] *589:7 0.000530513
4 *646:io_wbs_adr_i[18] *646:io_wbs_dat_i[17] 0.00550993
5 *646:io_wbs_dat_i[13] *646:io_wbs_dat_i[17] 0.00029945
*RES
1 wbs_dat_i[17] *646:io_wbs_dat_i[17] 33.2982 
*END

*D_NET *585 0.0156757
*CONN
*P wbs_dat_i[18] I
*I *646:io_wbs_dat_i[18] I *D CaravelTopLevel
*CAP
1 wbs_dat_i[18] 0.00244745
2 *646:io_wbs_dat_i[18] 0.00244745
3 *646:io_wbs_dat_i[18] *646:io_wbs_dat_i[22] 2.89354e-05
4 *646:io_wbs_adr_i[18] *646:io_wbs_dat_i[18] 0.00620698
5 *646:io_wbs_adr_i[19] *646:io_wbs_dat_i[18] 0.000754004
6 *646:io_wbs_adr_i[20] *646:io_wbs_dat_i[18] 0.00379091
7 *557:11 *646:io_wbs_dat_i[18] 0
*RES
1 wbs_dat_i[18] *646:io_wbs_dat_i[18] 33.2727 
*END

*D_NET *586 0.0116702
*CONN
*P wbs_dat_i[19] I
*I *646:io_wbs_dat_i[19] I *D CaravelTopLevel
*CAP
1 wbs_dat_i[19] 0.000711484
2 *646:io_wbs_dat_i[19] 0.000153133
3 *586:9 0.00134406
4 *586:7 0.00190241
5 *586:9 wbs_dat_o[22] 0.000135407
6 *586:9 *589:9 0.00313874
7 *586:9 *616:11 0.00123877
8 *586:9 *617:11 0.00103746
9 *557:13 *586:9 0.00103024
10 *583:9 *586:9 0.000978467
*RES
1 wbs_dat_i[19] *586:7 17.7679 
2 *586:7 *586:9 61.3214 
3 *586:9 *646:io_wbs_dat_i[19] 6.27679 
*END

*D_NET *587 0.0164654
*CONN
*P wbs_dat_i[1] I
*I *646:io_wbs_dat_i[1] I *D CaravelTopLevel
*CAP
1 wbs_dat_i[1] 0.000739924
2 *646:io_wbs_dat_i[1] 0.000167652
3 *587:9 0.00214575
4 *587:7 0.00271803
5 *587:9 *646:io_wbs_dat_i[2] 0.0013476
6 *587:9 *633:11 0.000698978
7 *587:9 *634:11 0.000306096
8 *587:9 *640:9 0.00292311
9 *587:9 *642:9 0.00128154
10 *587:9 *643:13 0.00287809
11 wbs_ack_o *587:9 0.000508093
12 *570:9 *587:9 0.000750489
*RES
1 wbs_dat_i[1] *587:7 18.0714 
2 *587:7 *587:9 81.0357 
3 *587:9 *646:io_wbs_dat_i[1] 6.27679 
*END

*D_NET *588 0.0131968
*CONN
*P wbs_dat_i[20] I
*I *646:io_wbs_dat_i[20] I *D CaravelTopLevel
*CAP
1 wbs_dat_i[20] 0.00059052
2 *646:io_wbs_dat_i[20] 6.09152e-05
3 *588:9 0.00191969
4 *588:7 0.00244929
5 *646:io_wbs_dat_i[20] wbs_dat_o[20] 0
6 *588:9 wbs_dat_o[22] 0.000675781
7 *588:9 *591:9 0.000134094
8 *588:9 *618:11 0.00528716
9 *588:9 *623:11 0.000940108
10 *551:9 *588:9 0.00113922
*RES
1 wbs_dat_i[20] *588:7 15.9464 
2 *588:7 *588:9 61.5268 
3 *588:9 *646:io_wbs_dat_i[20] 5.32143 
*END

*D_NET *589 0.0109107
*CONN
*P wbs_dat_i[21] I
*I *646:io_wbs_dat_i[21] I *D CaravelTopLevel
*CAP
1 wbs_dat_i[21] 0.000541112
2 *646:io_wbs_dat_i[21] 0.000136951
3 *589:9 0.00207973
4 *589:7 0.00248389
5 *589:9 wbs_dat_o[22] 0.00054775
6 *589:9 *616:11 0.000289648
7 *646:io_wbs_dat_i[17] *589:7 0.000530513
8 *557:13 *589:9 0.00116235
9 *586:9 *589:9 0.00313874
*RES
1 wbs_dat_i[21] *589:7 18.0714 
2 *589:7 *589:9 59.2679 
3 *589:9 *646:io_wbs_dat_i[21] 6.27679 
*END

*D_NET *590 0.0114738
*CONN
*P wbs_dat_i[22] I
*I *646:io_wbs_dat_i[22] I *D CaravelTopLevel
*CAP
1 wbs_dat_i[22] 0.00311731
2 *646:io_wbs_dat_i[22] 0.00311731
3 *646:io_wbs_dat_i[22] wbs_dat_o[20] 0.000205566
4 *646:io_wbs_adr_i[20] *646:io_wbs_dat_i[22] 0.00146612
5 *646:io_wbs_adr_i[24] *646:io_wbs_dat_i[22] 0.00346923
6 *646:io_wbs_adr_i[26] *646:io_wbs_dat_i[22] 6.93662e-05
7 *646:io_wbs_dat_i[18] *646:io_wbs_dat_i[22] 2.89354e-05
*RES
1 wbs_dat_i[22] *646:io_wbs_dat_i[22] 34.7516 
*END

*D_NET *591 0.0145389
*CONN
*P wbs_dat_i[23] I
*I *646:io_wbs_dat_i[23] I *D CaravelTopLevel
*CAP
1 wbs_dat_i[23] 0.000640972
2 *646:io_wbs_dat_i[23] 0.000200701
3 *591:9 0.00126593
4 *591:7 0.0017062
5 *591:7 *618:9 0
6 *591:9 wbs_dat_o[22] 0.000562113
7 *591:9 *618:11 0.000270646
8 *591:9 *621:13 0.00338527
9 *591:9 *623:11 0.00546675
10 *591:9 *626:11 0.000572316
11 *557:13 *591:9 0.000333902
12 *588:9 *591:9 0.000134094
*RES
1 wbs_dat_i[23] *591:7 16.5536 
2 *591:7 *591:9 56.8036 
3 *591:9 *646:io_wbs_dat_i[23] 6.27679 
*END

*D_NET *592 0.015326
*CONN
*P wbs_dat_i[24] I
*I *646:io_wbs_dat_i[24] I *D CaravelTopLevel
*CAP
1 wbs_dat_i[24] 0.00190034
2 *646:io_wbs_dat_i[24] 0.00190034
3 *646:io_wbs_dat_i[24] wbs_dat_o[20] 0.000309118
4 *646:io_wbs_dat_i[24] wbs_dat_o[27] 0
5 *646:io_wbs_dat_i[24] *646:io_wbs_dat_i[25] 0.00451033
6 *646:io_wbs_adr_i[21] *646:io_wbs_dat_i[24] 0.000188477
7 *646:io_wbs_adr_i[23] *646:io_wbs_dat_i[24] 0.000110842
8 *646:io_wbs_adr_i[24] *646:io_wbs_dat_i[24] 0.00587761
9 *646:io_wbs_adr_i[25] *646:io_wbs_dat_i[24] 0.000231359
10 *646:io_wbs_adr_i[27] *646:io_wbs_dat_i[24] 0.000297589
*RES
1 wbs_dat_i[24] *646:io_wbs_dat_i[24] 31.589 
*END

*D_NET *593 0.0152432
*CONN
*P wbs_dat_i[25] I
*I *646:io_wbs_dat_i[25] I *D CaravelTopLevel
*CAP
1 wbs_dat_i[25] 0.00178592
2 *646:io_wbs_dat_i[25] 0.00178592
3 *646:io_wbs_dat_i[25] wbs_dat_o[28] 0
4 *646:io_wbs_adr_i[25] *646:io_wbs_dat_i[25] 0.000671108
5 *646:io_wbs_adr_i[26] *646:io_wbs_dat_i[25] 0.00503717
6 *646:io_wbs_adr_i[27] *646:io_wbs_dat_i[25] 0.000151221
7 *646:io_wbs_adr_i[28] *646:io_wbs_dat_i[25] 0.00130149
8 *646:io_wbs_adr_i[29] *646:io_wbs_dat_i[25] 0
9 *646:io_wbs_dat_i[24] *646:io_wbs_dat_i[25] 0.00451033
*RES
1 wbs_dat_i[25] *646:io_wbs_dat_i[25] 29.9436 
*END

*D_NET *594 0.011427
*CONN
*P wbs_dat_i[26] I
*I *646:io_wbs_dat_i[26] I *D CaravelTopLevel
*CAP
1 wbs_dat_i[26] 0.00286486
2 *646:io_wbs_dat_i[26] 0.00286486
3 *646:io_wbs_dat_i[26] wbs_dat_o[29] 0.00023948
4 *646:io_wbs_adr_i[24] *646:io_wbs_dat_i[26] 0.000653347
5 *646:io_wbs_adr_i[27] *646:io_wbs_dat_i[26] 0.00480449
6 *646:io_wbs_adr_i[30] *646:io_wbs_dat_i[26] 0
*RES
1 wbs_dat_i[26] *646:io_wbs_dat_i[26] 32.3683 
*END

*D_NET *595 0.0105086
*CONN
*P wbs_dat_i[27] I
*I *646:io_wbs_dat_i[27] I *D CaravelTopLevel
*CAP
1 wbs_dat_i[27] 0.00338005
2 *646:io_wbs_dat_i[27] 0.00338005
3 *646:io_wbs_dat_i[27] wbs_dat_o[27] 0
4 *646:io_wbs_dat_i[27] wbs_dat_o[28] 0.00355754
5 *646:io_wbs_dat_i[27] wbs_dat_o[30] 0.000190982
6 *646:io_wbs_adr_i[24] *646:io_wbs_dat_i[27] 0
7 *646:io_wbs_adr_i[25] *646:io_wbs_dat_i[27] 0
8 *646:io_wbs_adr_i[26] *646:io_wbs_dat_i[27] 0
9 *646:io_wbs_adr_i[28] *646:io_wbs_dat_i[27] 0
*RES
1 wbs_dat_i[27] *646:io_wbs_dat_i[27] 29.9219 
*END

*D_NET *596 0.0132295
*CONN
*P wbs_dat_i[28] I
*I *646:io_wbs_dat_i[28] I *D CaravelTopLevel
*CAP
1 wbs_dat_i[28] 0.00200057
2 *646:io_wbs_dat_i[28] 0.00200057
3 *646:io_wbs_dat_i[28] wbs_dat_o[31] 0.00034562
4 *646:io_wbs_dat_i[28] *600:9 0
5 *646:io_wbs_adr_i[27] *646:io_wbs_dat_i[28] 0.00385199
6 *646:io_wbs_adr_i[28] *646:io_wbs_dat_i[28] 0.00284797
7 *646:io_wbs_adr_i[30] *646:io_wbs_dat_i[28] 0.00162061
8 *646:io_wbs_adr_i[31] *646:io_wbs_dat_i[28] 0.00056221
*RES
1 wbs_dat_i[28] *646:io_wbs_dat_i[28] 30.7433 
*END

*D_NET *597 0.0133777
*CONN
*P wbs_dat_i[29] I
*I *646:io_wbs_dat_i[29] I *D CaravelTopLevel
*CAP
1 wbs_dat_i[29] 0.00330094
2 *646:io_wbs_dat_i[29] 0.00330094
3 *646:io_wbs_dat_i[29] wbs_dat_o[27] 0.000894513
4 *646:io_wbs_dat_i[29] *646:io_wbs_dat_i[30] 0.00400217
5 *646:io_wbs_dat_i[29] *626:11 0.000505588
6 *646:io_wbs_dat_i[29] *631:11 0.00106373
7 *646:io_wbs_adr_i[26] *646:io_wbs_dat_i[29] 0.000309837
*RES
1 wbs_dat_i[29] *646:io_wbs_dat_i[29] 28.1888 
*END

*D_NET *598 0.0196666
*CONN
*P wbs_dat_i[2] I
*I *646:io_wbs_dat_i[2] I *D CaravelTopLevel
*CAP
1 wbs_dat_i[2] 0.00404372
2 *646:io_wbs_dat_i[2] 0.00404372
3 *646:io_wbs_dat_i[2] wbs_dat_o[0] 0.00514306
4 *646:io_wbs_dat_i[2] *634:11 0.000640203
5 *646:io_wbs_dat_i[2] *643:13 0.00113816
6 wbs_ack_o *646:io_wbs_dat_i[2] 0.00189805
7 *646:io_wbs_adr_i[3] *646:io_wbs_dat_i[2] 0.00125512
8 *570:9 *646:io_wbs_dat_i[2] 0.000156933
9 *587:9 *646:io_wbs_dat_i[2] 0.0013476
*RES
1 wbs_dat_i[2] *646:io_wbs_dat_i[2] 34.5198 
*END

*D_NET *599 0.0149328
*CONN
*P wbs_dat_i[30] I
*I *646:io_wbs_dat_i[30] I *D CaravelTopLevel
*CAP
1 wbs_dat_i[30] 0.00249294
2 *646:io_wbs_dat_i[30] 0.00249294
3 *646:io_wbs_dat_i[30] wbs_dat_o[27] 0.00130212
4 *646:io_wbs_dat_i[30] wbs_dat_o[29] 0.000429552
5 *646:io_wbs_dat_i[30] *631:11 0.0001356
6 *646:io_wbs_dat_i[30] *632:13 0.00050272
7 *646:io_la_data_in[0] *646:io_wbs_dat_i[30] 0.00270575
8 *646:io_la_data_in[1] *646:io_wbs_dat_i[30] 0.000869
9 *646:io_wbs_adr_i[27] *646:io_wbs_dat_i[30] 0
10 *646:io_wbs_dat_i[29] *646:io_wbs_dat_i[30] 0.00400217
*RES
1 wbs_dat_i[30] *646:io_wbs_dat_i[30] 28.1072 
*END

*D_NET *600 0.012114
*CONN
*P wbs_dat_i[31] I
*I *646:io_wbs_dat_i[31] I *D CaravelTopLevel
*CAP
1 wbs_dat_i[31] 0.000497109
2 *646:io_wbs_dat_i[31] 0.000204275
3 *600:11 0.00111737
4 *600:9 0.00141021
5 *600:11 *631:11 0.00211033
6 *600:11 *632:13 0.00455213
7 *646:io_la_data_in[0] *600:11 0.000185098
8 *646:io_la_data_in[1] *600:11 0.000376907
9 *646:io_wbs_adr_i[28] *600:9 0.000436841
10 *646:io_wbs_dat_i[28] *600:9 0
11 *439:9 *600:11 0.00122372
*RES
1 wbs_dat_i[31] *600:9 16.6786 
2 *600:9 *600:11 48.5893 
3 *600:11 *646:io_wbs_dat_i[31] 6.27679 
*END

*D_NET *601 0.0181802
*CONN
*P wbs_dat_i[3] I
*I *646:io_wbs_dat_i[3] I *D CaravelTopLevel
*CAP
1 wbs_dat_i[3] 0.00110737
2 *646:io_wbs_dat_i[3] 0.000293364
3 *601:13 0.00168412
4 *601:11 0.00249813
5 *601:11 *641:9 0.000563905
6 *601:11 *644:9 0.000446215
7 *601:13 *603:11 0.00433699
8 *601:13 *630:11 0.000838091
9 *601:13 *641:9 0.00362139
10 *646:io_wbs_adr_i[2] *601:11 0.000131918
11 *646:io_wbs_adr_i[2] *601:13 0.00086015
12 *646:io_wbs_adr_i[3] *646:io_wbs_dat_i[3] 0
13 *646:io_wbs_adr_i[3] *601:13 0.00022614
14 *646:io_wbs_cyc_i *601:11 3.47641e-06
15 *572:11 *601:13 0.00156894
*RES
1 wbs_dat_i[3] *601:11 30.3661 
2 *601:11 *601:13 63.9911 
3 *601:13 *646:io_wbs_dat_i[3] 6.88393 
*END

*D_NET *602 0.0151135
*CONN
*P wbs_dat_i[4] I
*I *646:io_wbs_dat_i[4] I *D CaravelTopLevel
*CAP
1 wbs_dat_i[4] 0.00370326
2 *646:io_wbs_dat_i[4] 0.00370326
3 *646:io_wbs_dat_i[4] wbs_dat_o[1] 0.000653347
4 *646:io_wbs_dat_i[4] *607:11 0
5 *646:io_wbs_adr_i[1] *646:io_wbs_dat_i[4] 0.00127934
6 *646:io_wbs_adr_i[4] *646:io_wbs_dat_i[4] 0.000223681
7 *646:io_wbs_adr_i[6] *646:io_wbs_dat_i[4] 0.00555064
8 *646:io_wbs_adr_i[9] *646:io_wbs_dat_i[4] 0
*RES
1 wbs_dat_i[4] *646:io_wbs_dat_i[4] 36.7427 
*END

*D_NET *603 0.0173982
*CONN
*P wbs_dat_i[5] I
*I *646:io_wbs_dat_i[5] I *D CaravelTopLevel
*CAP
1 wbs_dat_i[5] 0.000566463
2 *646:io_wbs_dat_i[5] 0.00056057
3 *603:19 0.00201495
4 *603:11 0.0029748
5 *603:7 0.00208688
6 *603:19 *639:11 0.000578042
7 *646:io_wbs_adr_i[1] *603:7 0
8 *646:io_wbs_adr_i[2] *603:11 0.000697309
9 *646:io_wbs_adr_i[3] *603:11 0.000731553
10 *544:7 *646:io_wbs_dat_i[5] 0
11 *572:11 *603:11 0.000231961
12 *572:17 *603:19 0.00261872
13 *573:15 *603:19 0
14 *577:7 *646:io_wbs_dat_i[5] 0
15 *601:13 *603:11 0.00433699
*RES
1 wbs_dat_i[5] *603:7 15.6429 
2 *603:7 *603:11 49.8036 
3 *603:11 *603:19 47.3393 
4 *603:19 *646:io_wbs_dat_i[5] 9.5625 
*END

*D_NET *604 0.0187026
*CONN
*P wbs_dat_i[6] I
*I *646:io_wbs_dat_i[6] I *D CaravelTopLevel
*CAP
1 wbs_dat_i[6] 0.00285657
2 *646:io_wbs_dat_i[6] 0.00285657
3 *646:io_wbs_adr_i[11] *646:io_wbs_dat_i[6] 0.000359713
4 *646:io_wbs_adr_i[4] *646:io_wbs_dat_i[6] 0.00466241
5 *646:io_wbs_adr_i[6] *646:io_wbs_dat_i[6] 0.00796736
*RES
1 wbs_dat_i[6] *646:io_wbs_dat_i[6] 34.4404 
*END

*D_NET *605 0.0174098
*CONN
*P wbs_dat_i[7] I
*I *646:io_wbs_dat_i[7] I *D CaravelTopLevel
*CAP
1 wbs_dat_i[7] 0.000646398
2 *646:io_wbs_dat_i[7] 0.000206234
3 *605:9 0.00184113
4 *605:7 0.00228129
5 *605:9 *607:13 0.000138591
6 *605:9 *609:11 0.00221307
7 *605:9 *635:11 0.00515134
8 *646:io_wbs_adr_i[11] *605:9 0.000325149
9 *646:io_wbs_adr_i[3] *605:9 0.000121926
10 *646:io_wbs_adr_i[9] *605:9 0.000621977
11 *544:9 *605:9 0.00178266
12 *572:11 *605:9 0.00208007
*RES
1 wbs_dat_i[7] *605:7 16.5536 
2 *605:7 *605:9 73.6429 
3 *605:9 *646:io_wbs_dat_i[7] 6.27679 
*END

*D_NET *606 0.017212
*CONN
*P wbs_dat_i[8] I
*I *646:io_wbs_dat_i[8] I *D CaravelTopLevel
*CAP
1 wbs_dat_i[8] 0.000800547
2 *646:io_wbs_dat_i[8] 0.000139073
3 *606:13 0.00132865
4 *606:11 0.00199012
5 *606:13 *607:11 0.0001976
6 *606:13 *607:13 0.00255482
7 *606:13 *643:13 0.000315812
8 *646:io_wbs_adr_i[9] *606:13 0.000857434
9 *570:9 *606:13 0.00235372
10 *572:15 *606:11 0
11 *573:15 *606:13 6.42916e-05
12 *573:17 *606:13 0.00660989
*RES
1 wbs_dat_i[8] *606:11 19.5536 
2 *606:11 *606:13 71.5893 
3 *606:13 *646:io_wbs_dat_i[8] 6.27679 
*END

*D_NET *607 0.0157318
*CONN
*P wbs_dat_i[9] I
*I *646:io_wbs_dat_i[9] I *D CaravelTopLevel
*CAP
1 wbs_dat_i[9] 0.000890858
2 *646:io_wbs_dat_i[9] 0.000155329
3 *607:13 0.00138675
4 *607:11 0.00212228
5 *607:11 *634:11 0.000271955
6 *607:11 *635:11 0.00133692
7 *607:13 *609:11 0.000942034
8 *607:13 *610:11 0.00361544
9 *607:13 *612:11 0.000169047
10 *607:13 *635:11 0.000270949
11 *646:io_wbs_adr_i[11] *607:13 0.000176794
12 *646:io_wbs_adr_i[9] *607:11 0.000245884
13 *646:io_wbs_adr_i[9] *607:13 0.000970307
14 *646:io_wbs_dat_i[4] *607:11 0
15 *570:9 *607:11 0.000286201
16 *605:9 *607:13 0.000138591
17 *606:13 *607:11 0.0001976
18 *606:13 *607:13 0.00255482
*RES
1 wbs_dat_i[9] *607:11 30.2411 
2 *607:11 *607:13 59.0625 
3 *607:13 *646:io_wbs_dat_i[9] 6.27679 
*END

*D_NET *608 0.0235487
*CONN
*P wbs_dat_o[0] O
*I *646:io_wbs_dat_o[0] O *D CaravelTopLevel
*CAP
1 wbs_dat_o[0] 0.00320516
2 *646:io_wbs_dat_o[0] 0.00320516
3 wbs_dat_o[0] *640:9 0.00136643
4 wbs_dat_o[0] *645:9 0.00154456
5 wbs_ack_o wbs_dat_o[0] 0.00214412
6 *646:io_wb_clk_i wbs_dat_o[0] 0.00489331
7 *646:io_wbs_adr_i[2] wbs_dat_o[0] 0.000287267
8 *646:io_wbs_adr_i[3] wbs_dat_o[0] 0.00175958
9 *646:io_wbs_dat_i[2] wbs_dat_o[0] 0.00514306
*RES
1 *646:io_wbs_dat_o[0] wbs_dat_o[0] 34.3451 
*END

*D_NET *609 0.0189424
*CONN
*P wbs_dat_o[10] O
*I *646:io_wbs_dat_o[10] O *D CaravelTopLevel
*CAP
1 wbs_dat_o[10] 0.000465386
2 *646:io_wbs_dat_o[10] 0.000235253
3 *609:11 0.00153189
4 *609:9 0.00130176
5 wbs_dat_o[10] *638:19 0.000379024
6 *609:11 *610:11 0.0056934
7 *609:11 *611:11 0.0040728
8 *646:io_wbs_adr_i[11] *609:11 0.000683449
9 *646:io_wbs_adr_i[6] wbs_dat_o[10] 0.00011709
10 *646:io_wbs_adr_i[9] *609:11 0.00070661
11 *544:9 *609:11 9.85599e-06
12 *546:9 *609:11 0.000590814
13 *605:9 *609:11 0.00221307
14 *607:13 *609:11 0.000942034
*RES
1 *646:io_wbs_dat_o[10] *609:9 6.27679 
2 *609:9 *609:11 70.3571 
3 *609:11 wbs_dat_o[10] 16.8571 
*END

*D_NET *610 0.0182771
*CONN
*P wbs_dat_o[11] O
*I *646:io_wbs_dat_o[11] O *D CaravelTopLevel
*CAP
1 wbs_dat_o[11] 0.00057971
2 *646:io_wbs_dat_o[11] 0.000180269
3 *610:11 0.00159718
4 *610:9 0.00119774
5 *610:11 wbs_dat_o[15] 0.000104631
6 *610:11 *611:11 0.000842772
7 *610:11 *612:11 0.0003015
8 *610:11 *613:11 0.00231088
9 *646:io_wbs_adr_i[11] *610:11 0.000155546
10 *646:io_wbs_adr_i[7] wbs_dat_o[11] 0.000661808
11 *646:io_wbs_adr_i[9] *610:11 0.000755324
12 *581:9 *610:11 0.000280947
13 *607:13 *610:11 0.00361544
14 *609:11 *610:11 0.0056934
*RES
1 *646:io_wbs_dat_o[11] *610:9 6.27679 
2 *610:9 *610:11 68.7143 
3 *610:11 wbs_dat_o[11] 18.125 
*END

*D_NET *611 0.0174588
*CONN
*P wbs_dat_o[12] O
*I *646:io_wbs_dat_o[12] O *D CaravelTopLevel
*CAP
1 wbs_dat_o[12] 0.000635791
2 *646:io_wbs_dat_o[12] 0.000200129
3 *611:11 0.00174248
4 *611:9 0.00130682
5 *611:11 wbs_dat_o[15] 0.000247386
6 *611:11 wbs_dat_o[16] 0.000489683
7 *611:11 *613:11 0.000188083
8 *646:io_wbs_adr_i[11] *611:11 0.000704645
9 *546:9 *611:11 0.00618803
10 *582:9 *611:11 0.000273609
11 *583:9 *611:11 0.000566578
12 *609:11 *611:11 0.0040728
13 *610:11 *611:11 0.000842772
*RES
1 *646:io_wbs_dat_o[12] *611:9 6.27679 
2 *611:9 *611:11 68.3036 
3 *611:11 wbs_dat_o[12] 16.5536 
*END

*D_NET *612 0.0162784
*CONN
*P wbs_dat_o[13] O
*I *646:io_wbs_dat_o[13] O *D CaravelTopLevel
*CAP
1 wbs_dat_o[13] 0.000755185
2 *646:io_wbs_dat_o[13] 0.000213397
3 *612:11 0.00206462
4 *612:9 0.00152283
5 *646:io_wbs_adr_i[16] *612:11 0.000416785
6 *549:9 *612:11 0.00487501
7 *581:9 *612:11 0.00596003
8 *607:13 *612:11 0.000169047
9 *610:11 *612:11 0.0003015
*RES
1 *646:io_wbs_dat_o[13] *612:9 6.27679 
2 *612:9 *612:11 67.0714 
3 *612:11 wbs_dat_o[13] 18.0714 
*END

*D_NET *613 0.0180258
*CONN
*P wbs_dat_o[14] O
*I *646:io_wbs_dat_o[14] O *D CaravelTopLevel
*CAP
1 wbs_dat_o[14] 0.000715224
2 *646:io_wbs_dat_o[14] 0.000166496
3 *613:11 0.00161965
4 *613:9 0.00107092
5 *646:io_wbs_adr_i[10] wbs_dat_o[14] 0
6 *646:io_wbs_adr_i[11] *613:11 0.000120538
7 *646:io_wbs_adr_i[16] *613:11 0.000981377
8 *646:io_wbs_dat_i[10] wbs_dat_o[14] 0
9 *549:9 *613:11 0.000191774
10 *581:9 *613:11 0.00647966
11 *583:9 *613:11 0.00418122
12 *610:11 *613:11 0.00231088
13 *611:11 *613:11 0.000188083
*RES
1 *646:io_wbs_dat_o[14] *613:9 6.27679 
2 *613:9 *613:11 66.25 
3 *613:11 wbs_dat_o[14] 17.4643 
*END

*D_NET *614 0.0191181
*CONN
*P wbs_dat_o[15] O
*I *646:io_wbs_dat_o[15] O *D CaravelTopLevel
*CAP
1 wbs_dat_o[15] 0.00407182
2 *646:io_wbs_dat_o[15] 0.00407182
3 wbs_dat_o[15] wbs_dat_o[16] 0.000207312
4 wbs_dat_o[15] *615:11 0.000386123
5 *646:io_wbs_adr_i[14] wbs_dat_o[15] 0
6 *646:io_wbs_adr_i[16] wbs_dat_o[15] 0.00674267
7 *646:io_wbs_dat_i[11] wbs_dat_o[15] 0.000358936
8 *546:9 wbs_dat_o[15] 0.00011307
9 *551:9 wbs_dat_o[15] 0.00172735
10 *582:9 wbs_dat_o[15] 0.00108694
11 *610:11 wbs_dat_o[15] 0.000104631
12 *611:11 wbs_dat_o[15] 0.000247386
*RES
1 *646:io_wbs_dat_o[15] wbs_dat_o[15] 30.7736 
*END

*D_NET *615 0.0147945
*CONN
*P wbs_dat_o[16] O
*I *646:io_wbs_dat_o[16] O *D CaravelTopLevel
*CAP
1 wbs_dat_o[16] 0.000702647
2 *646:io_wbs_dat_o[16] 0.000145371
3 *615:11 0.00156792
4 *615:9 0.00101064
5 *615:11 *617:11 0.00338861
6 *615:11 *618:11 0.00174427
7 wbs_dat_o[15] wbs_dat_o[16] 0.000207312
8 wbs_dat_o[15] *615:11 0.000386123
9 *646:io_wbs_adr_i[16] *615:11 0.000106739
10 *646:io_wbs_dat_i[12] wbs_dat_o[16] 0.000362831
11 *551:9 *615:11 0.000121859
12 *582:9 wbs_dat_o[16] 0.00142102
13 *582:9 *615:11 0.0017541
14 *583:9 wbs_dat_o[16] 0.000337281
15 *583:9 *615:11 0.00104806
16 *611:11 wbs_dat_o[16] 0.000489683
*RES
1 *646:io_wbs_dat_o[16] *615:9 6.27679 
2 *615:9 *615:11 50.4375 
3 *615:11 wbs_dat_o[16] 30.1518 
*END

*D_NET *616 0.0106784
*CONN
*P wbs_dat_o[17] O
*I *646:io_wbs_dat_o[17] O *D CaravelTopLevel
*CAP
1 wbs_dat_o[17] 0.000744009
2 *646:io_wbs_dat_o[17] 0.000139198
3 *616:11 0.00291793
4 *616:9 0.00231312
5 *646:io_wbs_adr_i[16] *616:11 0.000430334
6 *646:io_wbs_dat_i[13] wbs_dat_o[17] 0.000219744
7 *549:9 *616:11 0.0023571
8 *583:9 *616:11 2.85579e-05
9 *586:9 *616:11 0.00123877
10 *589:9 *616:11 0.000289648
*RES
1 *646:io_wbs_dat_o[17] *616:9 6.27679 
2 *616:9 *616:11 61.7321 
3 *616:11 wbs_dat_o[17] 20.1607 
*END

*D_NET *617 0.0147997
*CONN
*P wbs_dat_o[18] O
*I *646:io_wbs_dat_o[18] O *D CaravelTopLevel
*CAP
1 wbs_dat_o[18] 0.000645774
2 *646:io_wbs_dat_o[18] 0.000200466
3 *617:11 0.00167168
4 *617:9 0.00122637
5 *617:11 wbs_dat_o[21] 0.00152496
6 *617:11 *618:11 0.000860653
7 *646:io_wbs_adr_i[16] *617:11 0.000530808
8 *557:13 *617:11 0.000835727
9 *583:9 *617:11 0.00287719
10 *586:9 *617:11 0.00103746
11 *615:11 *617:11 0.00338861
*RES
1 *646:io_wbs_dat_o[18] *617:9 6.27679 
2 *617:9 *617:11 61.7321 
3 *617:11 wbs_dat_o[18] 16.8571 
*END

*D_NET *618 0.0151258
*CONN
*P wbs_dat_o[19] O
*I *646:io_wbs_dat_o[19] O *D CaravelTopLevel
*CAP
1 wbs_dat_o[19] 0.000603987
2 *646:io_wbs_dat_o[19] 0.000221646
3 *618:11 0.00155859
4 *618:9 0.00117624
5 *618:11 wbs_dat_o[21] 0.00219352
6 *618:11 wbs_dat_o[22] 0.000140704
7 *618:11 *621:13 0.00033719
8 *646:io_wbs_adr_i[16] *618:11 0.000115099
9 *551:9 *618:11 0.000616148
10 *588:9 *618:11 0.00528716
11 *591:7 *618:9 0
12 *591:9 *618:11 0.000270646
13 *615:11 *618:11 0.00174427
14 *617:11 *618:11 0.000860653
*RES
1 *646:io_wbs_dat_o[19] *618:9 6.58036 
2 *618:9 *618:11 60.9107 
3 *618:11 wbs_dat_o[19] 16.25 
*END

*D_NET *619 0.0187134
*CONN
*P wbs_dat_o[1] O
*I *646:io_wbs_dat_o[1] O *D CaravelTopLevel
*CAP
1 wbs_dat_o[1] 0.00345416
2 *646:io_wbs_dat_o[1] 0.00345416
3 wbs_dat_o[1] wbs_dat_o[5] 0
4 *646:io_wbs_adr_i[1] wbs_dat_o[1] 0.00806116
5 *646:io_wbs_adr_i[4] wbs_dat_o[1] 0.00309055
6 *646:io_wbs_dat_i[4] wbs_dat_o[1] 0.000653347
*RES
1 *646:io_wbs_dat_o[1] wbs_dat_o[1] 35.788 
*END

*D_NET *620 0.0158048
*CONN
*P wbs_dat_o[20] O
*I *646:io_wbs_dat_o[20] O *D CaravelTopLevel
*CAP
1 wbs_dat_o[20] 0.00201308
2 *646:io_wbs_dat_o[20] 0.00201308
3 wbs_dat_o[20] wbs_dat_o[24] 0
4 *646:io_wbs_adr_i[19] wbs_dat_o[20] 0.00394103
5 *646:io_wbs_adr_i[20] wbs_dat_o[20] 0.00559033
6 *646:io_wbs_adr_i[21] wbs_dat_o[20] 0.00157004
7 *646:io_wbs_adr_i[24] wbs_dat_o[20] 0.000162512
8 *646:io_wbs_dat_i[20] wbs_dat_o[20] 0
9 *646:io_wbs_dat_i[22] wbs_dat_o[20] 0.000205566
10 *646:io_wbs_dat_i[24] wbs_dat_o[20] 0.000309118
*RES
1 *646:io_wbs_dat_o[20] wbs_dat_o[20] 31.147 
*END

*D_NET *621 0.0160863
*CONN
*P wbs_dat_o[21] O
*I *646:io_wbs_dat_o[21] O *D CaravelTopLevel
*CAP
1 wbs_dat_o[21] 0.000978043
2 *646:io_wbs_dat_o[21] 0.000717657
3 *621:13 0.0016957
4 *621:13 wbs_dat_o[22] 0.00086844
5 *557:13 wbs_dat_o[21] 0.000354508
6 *557:13 *621:13 0.00403105
7 *591:9 *621:13 0.00338527
8 *617:11 wbs_dat_o[21] 0.00152496
9 *618:11 wbs_dat_o[21] 0.00219352
10 *618:11 *621:13 0.00033719
*RES
1 *646:io_wbs_dat_o[21] *621:13 44.8214 
2 *621:13 wbs_dat_o[21] 37.4196 
*END

*D_NET *622 0.0165091
*CONN
*P wbs_dat_o[22] O
*I *646:io_wbs_dat_o[22] O *D CaravelTopLevel
*CAP
1 wbs_dat_o[22] 0.00527909
2 *646:io_wbs_dat_o[22] 0.00527909
3 wbs_dat_o[22] *623:11 0.000887368
4 wbs_dat_o[22] *624:11 0.000713465
5 wbs_dat_o[22] *625:11 0.000252983
6 *646:io_wbs_adr_i[19] wbs_dat_o[22] 0
7 *557:13 wbs_dat_o[22] 0.00116688
8 *586:9 wbs_dat_o[22] 0.000135407
9 *588:9 wbs_dat_o[22] 0.000675781
10 *589:9 wbs_dat_o[22] 0.00054775
11 *591:9 wbs_dat_o[22] 0.000562113
12 *618:11 wbs_dat_o[22] 0.000140704
13 *621:13 wbs_dat_o[22] 0.00086844
*RES
1 *646:io_wbs_dat_o[22] wbs_dat_o[22] 30.8049 
*END

*D_NET *623 0.0147228
*CONN
*P wbs_dat_o[23] O
*I *646:io_wbs_dat_o[23] O *D CaravelTopLevel
*CAP
1 wbs_dat_o[23] 0.000630006
2 *646:io_wbs_dat_o[23] 0.00014683
3 *623:11 0.00161563
4 *623:9 0.00113245
5 *623:11 *624:11 0.000897467
6 *623:11 *625:11 0.00269874
7 *623:11 *626:11 0.000307466
8 wbs_dat_o[22] *623:11 0.000887368
9 *646:io_wbs_adr_i[20] wbs_dat_o[23] 0
10 *588:9 *623:11 0.000940108
11 *591:9 *623:11 0.00546675
*RES
1 *646:io_wbs_dat_o[23] *623:9 6.16964 
2 *623:9 *623:11 57.2143 
3 *623:11 wbs_dat_o[23] 16.25 
*END

*D_NET *624 0.0113783
*CONN
*P wbs_dat_o[24] O
*I *646:io_wbs_dat_o[24] O *D CaravelTopLevel
*CAP
1 wbs_dat_o[24] 0.000481354
2 *646:io_wbs_dat_o[24] 0.000207862
3 *624:11 0.00234832
4 *624:9 0.00207483
5 *624:11 wbs_dat_o[27] 0.000207292
6 *624:11 *625:11 0.00421
7 wbs_dat_o[20] wbs_dat_o[24] 0
8 wbs_dat_o[22] *624:11 0.000713465
9 *646:io_wbs_adr_i[21] wbs_dat_o[24] 0.000237696
10 *623:11 *624:11 0.000897467
*RES
1 *646:io_wbs_dat_o[24] *624:9 7.1875 
2 *624:9 *624:11 55.5714 
3 *624:11 wbs_dat_o[24] 15.6429 
*END

*D_NET *625 0.0130471
*CONN
*P wbs_dat_o[25] O
*I *646:io_wbs_dat_o[25] O *D CaravelTopLevel
*CAP
1 wbs_dat_o[25] 0.000606802
2 *646:io_wbs_dat_o[25] 0.000180515
3 *625:11 0.00180966
4 *625:9 0.00138337
5 *625:11 wbs_dat_o[27] 0.000782343
6 *625:11 *626:11 0.00112264
7 wbs_dat_o[22] *625:11 0.000252983
8 *623:11 *625:11 0.00269874
9 *624:11 *625:11 0.00421
*RES
1 *646:io_wbs_dat_o[25] *625:9 6.88393 
2 *625:9 *625:11 54.75 
3 *625:11 wbs_dat_o[25] 15.9464 
*END

*D_NET *626 0.00941962
*CONN
*P wbs_dat_o[26] O
*I *646:io_wbs_dat_o[26] O *D CaravelTopLevel
*CAP
1 wbs_dat_o[26] 0.00057546
2 *646:io_wbs_dat_o[26] 9.27428e-05
3 *626:11 0.00279178
4 *626:9 0.00230906
5 *626:11 wbs_dat_o[27] 0.000399172
6 *646:io_wbs_adr_i[23] wbs_dat_o[26] 0.000743394
7 *646:io_wbs_dat_i[29] *626:11 0.000505588
8 *591:9 *626:11 0.000572316
9 *623:11 *626:11 0.000307466
10 *625:11 *626:11 0.00112264
*RES
1 *646:io_wbs_dat_o[26] *626:9 6.27679 
2 *626:9 *626:11 54.75 
3 *626:11 wbs_dat_o[26] 18.2143 
*END

*D_NET *627 0.011512
*CONN
*P wbs_dat_o[27] O
*I *646:io_wbs_dat_o[27] O *D CaravelTopLevel
*CAP
1 wbs_dat_o[27] 0.0032988
2 *646:io_wbs_dat_o[27] 0.0032988
3 wbs_dat_o[27] wbs_dat_o[28] 0.000109818
4 wbs_dat_o[27] wbs_dat_o[29] 0.00089735
5 *646:io_wbs_adr_i[24] wbs_dat_o[27] 0
6 *646:io_wbs_adr_i[29] wbs_dat_o[27] 0.000321846
7 *646:io_wbs_dat_i[24] wbs_dat_o[27] 0
8 *646:io_wbs_dat_i[27] wbs_dat_o[27] 0
9 *646:io_wbs_dat_i[29] wbs_dat_o[27] 0.000894513
10 *646:io_wbs_dat_i[30] wbs_dat_o[27] 0.00130212
11 *624:11 wbs_dat_o[27] 0.000207292
12 *625:11 wbs_dat_o[27] 0.000782343
13 *626:11 wbs_dat_o[27] 0.000399172
*RES
1 *646:io_wbs_dat_o[27] wbs_dat_o[27] 28.5396 
*END

*D_NET *628 0.0134587
*CONN
*P wbs_dat_o[28] O
*I *646:io_wbs_dat_o[28] O *D CaravelTopLevel
*CAP
1 wbs_dat_o[28] 0.00225339
2 *646:io_wbs_dat_o[28] 0.00225339
3 wbs_dat_o[28] wbs_dat_o[31] 0
4 wbs_dat_o[27] wbs_dat_o[28] 0.000109818
5 *646:io_la_data_in[0] wbs_dat_o[28] 8.67306e-05
6 *646:io_wbs_adr_i[25] wbs_dat_o[28] 0
7 *646:io_wbs_adr_i[28] wbs_dat_o[28] 0
8 *646:io_wbs_adr_i[29] wbs_dat_o[28] 0.00519788
9 *646:io_wbs_dat_i[25] wbs_dat_o[28] 0
10 *646:io_wbs_dat_i[27] wbs_dat_o[28] 0.00355754
*RES
1 *646:io_wbs_dat_o[28] wbs_dat_o[28] 29.367 
*END

*D_NET *629 0.0112745
*CONN
*P wbs_dat_o[29] O
*I *646:io_wbs_dat_o[29] O *D CaravelTopLevel
*CAP
1 wbs_dat_o[29] 0.0021605
2 *646:io_wbs_dat_o[29] 0.0021605
3 la_data_out[0] wbs_dat_o[29] 0.000330431
4 wbs_dat_o[27] wbs_dat_o[29] 0.00089735
5 *646:io_la_data_in[0] wbs_dat_o[29] 0.000543675
6 *646:io_la_data_in[1] wbs_dat_o[29] 0
7 *646:io_wbs_adr_i[26] wbs_dat_o[29] 0
8 *646:io_wbs_adr_i[29] wbs_dat_o[29] 0.00451303
9 *646:io_wbs_dat_i[26] wbs_dat_o[29] 0.00023948
10 *646:io_wbs_dat_i[30] wbs_dat_o[29] 0.000429552
11 *400:7 wbs_dat_o[29] 0
*RES
1 *646:io_wbs_dat_o[29] wbs_dat_o[29] 29.4895 
*END

*D_NET *630 0.0198107
*CONN
*P wbs_dat_o[2] O
*I *646:io_wbs_dat_o[2] O *D CaravelTopLevel
*CAP
1 wbs_dat_o[2] 0.000643788
2 *646:io_wbs_dat_o[2] 0.000167654
3 *630:11 0.00194818
4 *630:9 0.00147205
5 *630:11 *633:11 0.0018702
6 *630:11 *635:11 0.00230064
7 *630:11 *641:9 0.00679353
8 *630:11 *645:9 0.00264632
9 *646:io_wbs_adr_i[3] *630:11 0.00107526
10 *572:11 *630:11 5.50052e-05
11 *601:13 *630:11 0.000838091
*RES
1 *646:io_wbs_dat_o[2] *630:9 5.86607 
2 *630:9 *630:11 79.8036 
3 *630:11 wbs_dat_o[2] 16.5536 
*END

*D_NET *631 0.00962556
*CONN
*P wbs_dat_o[30] O
*I *646:io_wbs_dat_o[30] O *D CaravelTopLevel
*CAP
1 wbs_dat_o[30] 0.000721597
2 *646:io_wbs_dat_o[30] 0.000155568
3 *631:11 0.00267792
4 *631:9 0.00211189
5 *646:io_la_data_in[1] *631:11 0.000272593
6 *646:io_wbs_adr_i[27] wbs_dat_o[30] 0
7 *646:io_wbs_dat_i[27] wbs_dat_o[30] 0.000190982
8 *646:io_wbs_dat_i[29] *631:11 0.00106373
9 *646:io_wbs_dat_i[30] *631:11 0.0001356
10 *439:9 *631:11 0.000185358
11 *600:11 *631:11 0.00211033
*RES
1 *646:io_wbs_dat_o[30] *631:9 6.27679 
2 *631:9 *631:11 50.2321 
3 *631:11 wbs_dat_o[30] 18.7143 
*END

*D_NET *632 0.0127846
*CONN
*P wbs_dat_o[31] O
*I *646:io_wbs_dat_o[31] O *D CaravelTopLevel
*CAP
1 wbs_dat_o[31] 0.000455062
2 *646:io_wbs_dat_o[31] 0.000176556
3 *632:13 0.00146503
4 *632:9 0.00118652
5 wbs_dat_o[28] wbs_dat_o[31] 0
6 *646:io_la_data_in[1] *632:13 0.000386123
7 *646:io_wbs_dat_i[28] wbs_dat_o[31] 0.00034562
8 *646:io_wbs_dat_i[30] *632:13 0.00050272
9 *400:9 *632:13 0.00343118
10 *439:9 *632:13 0.000283616
11 *600:11 *632:13 0.00455213
*RES
1 *646:io_wbs_dat_o[31] *632:9 6.58036 
2 *632:9 *632:13 48.6071 
3 *632:13 wbs_dat_o[31] 15.9464 
*END

*D_NET *633 0.0186435
*CONN
*P wbs_dat_o[3] O
*I *646:io_wbs_dat_o[3] O *D CaravelTopLevel
*CAP
1 wbs_dat_o[3] 0.000743472
2 *646:io_wbs_dat_o[3] 0.000203852
3 *633:11 0.00198437
4 *633:9 0.00144475
5 wbs_dat_o[3] *646:io_wbs_stb_i 0
6 wbs_dat_o[3] *640:19 0
7 *633:11 *634:11 0.00599722
8 *633:11 *635:11 0.00434969
9 *633:11 *640:9 0.000226867
10 *633:11 *645:9 0.000311206
11 *646:io_wbs_adr_i[3] *633:11 0.000812864
12 *587:9 *633:11 0.000698978
13 *630:11 *633:11 0.0018702
*RES
1 *646:io_wbs_dat_o[3] *633:9 6.27679 
2 *633:9 *633:11 76.9286 
3 *633:11 wbs_dat_o[3] 18.2321 
*END

*D_NET *634 0.020134
*CONN
*P wbs_dat_o[4] O
*I *646:io_wbs_dat_o[4] O *D CaravelTopLevel
*CAP
1 wbs_dat_o[4] 0.000697567
2 *646:io_wbs_dat_o[4] 0.000231967
3 *634:11 0.00178734
4 *634:9 0.00132174
5 wbs_dat_o[4] *646:io_wbs_sel_i[0] 0
6 *634:11 *635:11 0.000983422
7 *646:io_wbs_adr_i[3] *634:11 0.000210013
8 *646:io_wbs_adr_i[9] *634:11 0.000174284
9 *646:io_wbs_dat_i[2] *634:11 0.000640203
10 *570:9 *634:11 0.00751223
11 *587:9 *634:11 0.000306096
12 *607:11 *634:11 0.000271955
13 *633:11 *634:11 0.00599722
*RES
1 *646:io_wbs_dat_o[4] *634:9 6.27679 
2 *634:9 *634:11 76.5179 
3 *634:11 wbs_dat_o[4] 17.4643 
*END

*D_NET *635 0.0197801
*CONN
*P wbs_dat_o[5] O
*I *646:io_wbs_dat_o[5] O *D CaravelTopLevel
*CAP
1 wbs_dat_o[5] 0.00066182
2 *646:io_wbs_dat_o[5] 0.000153474
3 *635:11 0.00179655
4 *635:9 0.00128821
5 wbs_dat_o[1] wbs_dat_o[5] 0
6 *646:io_wbs_adr_i[3] *635:11 0.000703617
7 *646:io_wbs_adr_i[9] *635:11 0.000507227
8 *572:11 *635:11 0.000276265
9 *605:9 *635:11 0.00515134
10 *607:11 *635:11 0.00133692
11 *607:13 *635:11 0.000270949
12 *630:11 *635:11 0.00230064
13 *633:11 *635:11 0.00434969
14 *634:11 *635:11 0.000983422
*RES
1 *646:io_wbs_dat_o[5] *635:9 6.27679 
2 *635:9 *635:11 75.6964 
3 *635:11 wbs_dat_o[5] 16.8571 
*END

*D_NET *636 0.0180931
*CONN
*P wbs_dat_o[6] O
*I *646:io_wbs_dat_o[6] O *D CaravelTopLevel
*CAP
1 wbs_dat_o[6] 0.000798859
2 *646:io_wbs_dat_o[6] 0.000790867
3 *636:17 0.00156521
4 *636:13 0.00155722
5 *636:13 *637:11 0.000607511
6 *636:13 *638:19 0.00335546
7 *636:17 *637:11 0.00170616
8 *636:17 *642:9 0.00109607
9 *636:17 *643:13 0.000678812
10 *646:io_wbs_adr_i[2] wbs_dat_o[6] 0
11 *646:io_wbs_adr_i[9] *636:13 0.000418671
12 *573:15 *636:13 9.86153e-06
13 *573:15 *636:17 0.00100808
14 *573:17 *636:13 0.00448376
15 *573:17 *636:17 1.65914e-05
*RES
1 *646:io_wbs_dat_o[6] *636:13 49.1339 
2 *636:13 *636:17 36.6607 
3 *636:17 wbs_dat_o[6] 14.4821 
*END

*D_NET *637 0.0129733
*CONN
*P wbs_dat_o[7] O
*I *646:io_wbs_dat_o[7] O *D CaravelTopLevel
*CAP
1 wbs_dat_o[7] 0.000798712
2 *646:io_wbs_dat_o[7] 0.000125451
3 *637:11 0.00322107
4 *637:9 0.00254781
5 *637:11 *638:19 0.00335546
6 *646:io_wbs_adr_i[3] wbs_dat_o[7] 2.98338e-05
7 *573:17 *637:11 0.000581344
8 *636:13 *637:11 0.000607511
9 *636:17 *637:11 0.00170616
*RES
1 *646:io_wbs_dat_o[7] *637:9 6.27679 
2 *637:9 *637:11 73.2321 
3 *637:11 wbs_dat_o[7] 19.2857 
*END

*D_NET *638 0.0204547
*CONN
*P wbs_dat_o[8] O
*I *646:io_wbs_dat_o[8] O *D CaravelTopLevel
*CAP
1 wbs_dat_o[8] 0.000805594
2 *646:io_wbs_dat_o[8] 0.000611171
3 *638:19 0.00152303
4 *638:13 0.00175689
5 *638:9 0.00165063
6 *638:13 *639:11 0.00428257
7 wbs_dat_o[10] *638:19 0.000379024
8 *646:io_wbs_adr_i[4] wbs_dat_o[8] 0
9 *646:io_wbs_adr_i[6] *638:19 0.000679702
10 *646:io_wbs_adr_i[9] *638:19 0.000306814
11 *572:15 wbs_dat_o[8] 8.72217e-05
12 *572:17 *638:13 0.00166115
13 *636:13 *638:19 0.00335546
14 *637:11 *638:19 0.00335546
*RES
1 *646:io_wbs_dat_o[8] *638:9 14.0625 
2 *638:9 *638:13 44.875 
3 *638:13 *638:19 47 
4 *638:19 wbs_dat_o[8] 20.0536 
*END

*D_NET *639 0.0125944
*CONN
*P wbs_dat_o[9] O
*I *646:io_wbs_dat_o[9] O *D CaravelTopLevel
*CAP
1 wbs_dat_o[9] 0.000289913
2 *646:io_wbs_dat_o[9] 0.000669352
3 *639:11 0.00293972
4 *639:9 0.00331916
5 *646:io_wbs_adr_i[14] *639:9 0
6 *544:7 wbs_dat_o[9] 0
7 *572:17 *639:11 0.000515617
8 *581:7 *639:9 0
9 *603:19 *639:11 0.000578042
10 *638:13 *639:11 0.00428257
*RES
1 *646:io_wbs_dat_o[9] *639:9 14.7768 
2 *639:9 *639:11 69.125 
3 *639:11 wbs_dat_o[9] 10.2321 
*END

*D_NET *640 0.0163534
*CONN
*P wbs_sel_i[0] I
*I *646:io_wbs_sel_i[0] I *D CaravelTopLevel
*CAP
1 wbs_sel_i[0] 0.000687313
2 *646:io_wbs_sel_i[0] 0.000574313
3 *640:19 0.00218572
4 *640:9 0.00294535
5 *640:7 0.00202126
6 *640:9 *645:9 0.00341359
7 *640:19 *646:io_wbs_we_i 9.47364e-06
8 *640:19 *643:11 0
9 wbs_dat_o[0] *640:9 0.00136643
10 wbs_dat_o[3] *640:19 0
11 wbs_dat_o[4] *646:io_wbs_sel_i[0] 0
12 *570:7 *646:io_wbs_sel_i[0] 0
13 *587:9 *640:9 0.00292311
14 *633:11 *640:9 0.000226867
*RES
1 wbs_sel_i[0] *640:7 17.4643 
2 *640:7 *640:9 61.3214 
3 *640:9 *640:19 42.7857 
4 *640:19 *646:io_wbs_sel_i[0] 9.36607 
*END

*D_NET *641 0.0208207
*CONN
*P wbs_sel_i[1] I
*I *646:io_wbs_sel_i[1] I *D CaravelTopLevel
*CAP
1 wbs_sel_i[1] 0.000611591
2 *646:io_wbs_sel_i[1] 0.000252448
3 *641:9 0.00148264
4 *641:7 0.00184179
5 *641:9 *644:9 0.0037747
6 *641:9 *645:9 0.00089691
7 *646:io_wbs_adr_i[2] *641:9 0.000333271
8 *646:io_wbs_adr_i[3] *641:9 0.000648529
9 *601:11 *641:9 0.000563905
10 *601:13 *641:9 0.00362139
11 *630:11 *641:9 0.00679353
*RES
1 wbs_sel_i[1] *641:7 16.25 
2 *641:7 *641:9 80.2143 
3 *641:9 *646:io_wbs_sel_i[1] 6.58036 
*END

*D_NET *642 0.0151461
*CONN
*P wbs_sel_i[2] I
*I *646:io_wbs_sel_i[2] I *D CaravelTopLevel
*CAP
1 wbs_sel_i[2] 0.000716875
2 *646:io_wbs_sel_i[2] 0.000111995
3 *642:9 0.00247208
4 *642:7 0.00307696
5 *642:9 *643:13 0.00600635
6 *646:io_wb_rst_i *642:7 0.000384279
7 *587:9 *642:9 0.00128154
8 *636:17 *642:9 0.00109607
*RES
1 wbs_sel_i[2] *642:7 18.6786 
2 *642:7 *642:9 78.9821 
3 *642:9 *646:io_wbs_sel_i[2] 6.27679 
*END

*D_NET *643 0.018904
*CONN
*P wbs_sel_i[3] I
*I *646:io_wbs_sel_i[3] I *D CaravelTopLevel
*CAP
1 wbs_sel_i[3] 0.000837231
2 *646:io_wbs_sel_i[3] 0.000150043
3 *643:13 0.00131915
4 *643:11 0.00200634
5 *646:io_wbs_adr_i[0] *643:11 0
6 *646:io_wbs_dat_i[2] *643:13 0.00113816
7 *570:9 *643:13 0.00269544
8 *573:15 *643:13 0.000878573
9 *587:9 *643:13 0.00287809
10 *606:13 *643:13 0.000315812
11 *636:17 *643:13 0.000678812
12 *640:19 *643:11 0
13 *642:9 *643:13 0.00600635
*RES
1 wbs_sel_i[3] *643:11 19.8571 
2 *643:11 *643:13 76.9286 
3 *643:13 *646:io_wbs_sel_i[3] 5.86607 
*END

*D_NET *644 0.0205676
*CONN
*P wbs_stb_i I
*I *646:io_wbs_stb_i I *D CaravelTopLevel
*CAP
1 wbs_stb_i 0.000578321
2 *646:io_wbs_stb_i 0.000226403
3 *644:9 0.00171528
4 *644:7 0.0020672
5 *644:9 *645:9 0.00164863
6 wbs_dat_o[3] *646:io_wbs_stb_i 0
7 *646:io_wb_clk_i *644:9 0.00113106
8 *646:io_wbs_adr_i[2] *644:9 0.000699299
9 *575:9 *644:9 0.0082805
10 *601:11 *644:9 0.000446215
11 *641:9 *644:9 0.0037747
*RES
1 wbs_stb_i *644:7 15.9464 
2 *644:7 *644:9 83.5 
3 *644:9 *646:io_wbs_stb_i 6.88393 
*END

*D_NET *645 0.0161083
*CONN
*P wbs_we_i I
*I *646:io_wbs_we_i I *D CaravelTopLevel
*CAP
1 wbs_we_i 0.000635388
2 *646:io_wbs_we_i 0.000131542
3 *645:9 0.00209492
4 *645:7 0.00259876
5 wbs_ack_o *645:9 0.000177031
6 wbs_dat_o[0] *645:9 0.00154456
7 *630:11 *645:9 0.00264632
8 *633:11 *645:9 0.000311206
9 *640:9 *645:9 0.00341359
10 *640:19 *646:io_wbs_we_i 9.47364e-06
11 *641:9 *645:9 0.00089691
12 *644:9 *645:9 0.00164863
*RES
1 wbs_we_i *645:7 16.8571 
2 *645:7 *645:9 83.0893 
3 *645:9 *646:io_wbs_we_i 6.27679 
*END
